Scalar VONMISES under NLStatic for nodeset
189
   0.0000E+00
  6.7276E+02
  4.9122E+02
  6.0549E+02
  6.1854E+02
  4.4983E+02
  5.7641E+02
  6.6907E+02
  4.9077E+02
  6.1061E+02
  8.4667E+02
  6.8763E+02
  7.9102E+02
  8.3529E+02
  6.8261E+02
  7.9548E+02
  8.4241E+02
  6.8672E+02
  7.9664E+02
  8.8273E+02
  9.6537E+02
  1.2504E+03
  8.9364E+02
  9.7565E+02
  1.2737E+03
  8.7812E+02
  9.6278E+02
  1.2601E+03
  7.0762E+02
  9.5705E+02
  1.3011E+03
  7.1584E+02
  9.3280E+02
  1.2742E+03
  7.0606E+02
  9.5237E+02
  1.3061E+03
  6.9381E+02
  7.6482E+02
  8.3866E+02
  7.0012E+02
  7.7007E+02
  8.4474E+02
  6.9388E+02
  7.6232E+02
  8.4218E+02
  7.1185E+02
  7.5042E+02
  7.8831E+02
  7.0887E+02
  7.6413E+02
  8.2163E+02
  7.1207E+02
  7.5064E+02
  7.8848E+02
  6.9293E+02
  7.6175E+02
  8.4361E+02
  6.9914E+02
  7.6976E+02
  8.4626E+02
  6.9339E+02
  7.6481E+02
  8.4051E+02
  7.0583E+02
  9.5173E+02
  1.3081E+03
  7.1305E+02
  9.3043E+02
  1.2772E+03
  7.0821E+02
  9.5711E+02
  1.3034E+03
  8.8830E+02
  9.6332E+02
  1.2768E+03
  8.8658E+02
  9.5881E+02
  1.2770E+03
  8.9465E+02
  9.6777E+02
  1.2687E+03
  8.5682E+02
  7.2353E+02
  8.2298E+02
  8.6220E+02
  7.2927E+02
  8.3429E+02
  8.6549E+02
  7.2851E+02
  8.1980E+02
  7.8187E+02
  7.2400E+02
  7.6339E+02
  7.8962E+02
  7.3641E+02
  7.7493E+02
  7.9643E+02
  7.3215E+02
  7.5969E+02
  7.5657E+02
  7.4465E+02
  7.7674E+02
  7.6065E+02
  7.3805E+02
  7.6003E+02
  7.8992E+02
  7.5432E+02
  7.6106E+02
  7.9052E+02
  7.8818E+02
  8.5260E+02
  7.9148E+02
  7.0441E+02
  7.5872E+02
  8.6025E+02
  7.6039E+02
  7.9810E+02
  1.0456E+03
  1.0614E+03
  1.0206E+03
  1.0714E+03
  8.5692E+02
  8.4295E+02
  1.0283E+03
  8.4597E+02
  8.9671E+02
  1.3686E+03
  1.2207E+03
  9.1928E+02
  1.2259E+03
  1.1818E+03
  1.0967E+03
  9.2657E+02
  1.1040E+03
  1.4281E+03
  9.3198E+02
  9.2316E+02
  7.7399E+02
  9.2516E+02
  1.0154E+03
  9.7901E+02
  7.8930E+02
  9.8739E+02
  1.2838E+03
  7.1659E+02
  7.9997E+02
  7.6981E+02
  8.0278E+02
  8.2515E+02
  7.5975E+02
  7.8462E+02
  7.6443E+02
  8.2849E+02
  7.0757E+02
  7.7834E+02
  7.6628E+02
  7.7930E+02
  7.6477E+02
  7.4126E+02
  7.7028E+02
  7.4168E+02
  8.2324E+02
  7.3440E+02
  7.6662E+02
  7.5821E+02
  7.6719E+02
  7.5749E+02
  7.5070E+02
  7.5878E+02
  7.5142E+02
  7.7916E+02
  7.5059E+02
  7.6037E+02
  7.5811E+02
  7.6064E+02
  7.5787E+02
  7.5525E+02
  7.5815E+02
  7.5554E+02
  7.6491E+02
  7.5554E+02
  7.5873E+02
  7.5799E+02
  7.5881E+02
  7.5792E+02
  7.5696E+02
  7.5799E+02
  7.5706E+02
  7.6026E+02
