Scalar VONMISES under Static for nodeset
189
   0.0000E+00
  8.2012E+02
  8.2012E+02
  8.2012E+02
  8.2012E+02
  8.2012E+02
  8.2012E+02
  8.2012E+02
  8.2012E+02
  8.2012E+02
  9.1749E+02
  9.1749E+02
  9.1749E+02
  9.1749E+02
  9.1749E+02
  9.1749E+02
  9.1749E+02
  9.1749E+02
  9.1749E+02
  1.0088E+03
  1.0088E+03
  1.0088E+03
  1.0088E+03
  1.0088E+03
  1.0088E+03
  1.0088E+03
  1.0088E+03
  1.0088E+03
  1.0014E+03
  1.0014E+03
  1.0014E+03
  1.0014E+03
  1.0014E+03
  1.0014E+03
  1.0014E+03
  1.0014E+03
  1.0014E+03
  9.9997E+02
  9.9997E+02
  9.9997E+02
  9.9997E+02
  9.9997E+02
  9.9997E+02
  9.9997E+02
  9.9997E+02
  9.9997E+02
  9.9998E+02
  9.9998E+02
  9.9998E+02
  9.9998E+02
  9.9998E+02
  9.9998E+02
  9.9998E+02
  9.9998E+02
  9.9998E+02
  1.0000E+03
  1.0000E+03
  1.0000E+03
  1.0000E+03
  1.0000E+03
  1.0000E+03
  1.0000E+03
  1.0000E+03
  1.0000E+03
  1.0000E+03
  1.0000E+03
  1.0000E+03
  1.0000E+03
  1.0000E+03
  1.0000E+03
  1.0000E+03
  1.0000E+03
  1.0000E+03
  1.0000E+03
  1.0000E+03
  1.0000E+03
  1.0000E+03
  1.0000E+03
  1.0000E+03
  1.0000E+03
  1.0000E+03
  1.0000E+03
  1.0000E+03
  1.0000E+03
  1.0000E+03
  1.0000E+03
  1.0000E+03
  1.0000E+03
  1.0000E+03
  1.0000E+03
  1.0000E+03
  1.0000E+03
  1.0000E+03
  1.0000E+03
  1.0000E+03
  1.0000E+03
  1.0000E+03
  1.0000E+03
  1.0000E+03
  1.0000E+03
  1.0000E+03
  1.0000E+03
  1.0000E+03
  1.0000E+03
  1.0000E+03
  1.0000E+03
  1.0000E+03
  1.0000E+03
  1.0000E+03
  1.0000E+03
  1.0000E+03
  1.0000E+03
  1.0000E+03
  1.0000E+03
  1.0000E+03
  1.0000E+03
  1.0000E+03
  1.0000E+03
  1.0000E+03
  1.0000E+03
  1.0000E+03
  1.0000E+03
  1.0000E+03
  1.0000E+03
  1.0000E+03
  1.0000E+03
  1.0000E+03
  1.0000E+03
  1.0000E+03
  1.0000E+03
  1.0000E+03
  1.0000E+03
  1.0000E+03
  1.0000E+03
  1.0000E+03
  1.0000E+03
  1.0000E+03
  1.0000E+03
  1.0000E+03
  1.0000E+03
  1.0000E+03
  1.0000E+03
  1.0000E+03
  1.0000E+03
  1.0000E+03
  1.0000E+03
  1.0000E+03
  1.0000E+03
  1.0000E+03
  1.0000E+03
  1.0000E+03
  1.0000E+03
  1.0000E+03
  1.0000E+03
  1.0000E+03
  1.0000E+03
  1.0000E+03
  1.0000E+03
  1.0000E+03
  1.0000E+03
  1.0000E+03
  1.0000E+03
  1.0000E+03
  1.0000E+03
  1.0000E+03
  1.0000E+03
  1.0000E+03
  1.0000E+03
  1.0000E+03
  1.0000E+03
  1.0000E+03
  1.0000E+03
  1.0000E+03
  1.0000E+03
  1.0000E+03
  1.0000E+03
  1.0000E+03
  1.0000E+03
  1.0000E+03
  1.0000E+03
  1.0000E+03
  1.0000E+03
  1.0000E+03
  1.0000E+03
  1.0000E+03
  1.0000E+03
  1.0000E+03
  1.0000E+03
  1.0000E+03
  1.0000E+03
