Scalar VONMISES_STRAIN under Dynam for nodeset
189
   0.0000E+00
  0.0000E+00
  0.0000E+00
  0.0000E+00
  0.0000E+00
  0.0000E+00
  0.0000E+00
  0.0000E+00
  0.0000E+00
  0.0000E+00
  0.0000E+00
  0.0000E+00
  0.0000E+00
  0.0000E+00
  0.0000E+00
  0.0000E+00
  0.0000E+00
  0.0000E+00
  0.0000E+00
  0.0000E+00
  0.0000E+00
  0.0000E+00
  0.0000E+00
  0.0000E+00
  0.0000E+00
  0.0000E+00
  0.0000E+00
  0.0000E+00
  0.0000E+00
  0.0000E+00
  0.0000E+00
  0.0000E+00
  0.0000E+00
  0.0000E+00
  0.0000E+00
  0.0000E+00
  0.0000E+00
  0.0000E+00
  0.0000E+00
  0.0000E+00
  0.0000E+00
  0.0000E+00
  0.0000E+00
  0.0000E+00
  0.0000E+00
  0.0000E+00
  0.0000E+00
  0.0000E+00
  0.0000E+00
  0.0000E+00
  0.0000E+00
  0.0000E+00
  0.0000E+00
  0.0000E+00
  0.0000E+00
  0.0000E+00
  0.0000E+00
  0.0000E+00
  0.0000E+00
  0.0000E+00
  0.0000E+00
  0.0000E+00
  0.0000E+00
  0.0000E+00
  0.0000E+00
  0.0000E+00
  0.0000E+00
  0.0000E+00
  0.0000E+00
  0.0000E+00
  0.0000E+00
  0.0000E+00
  0.0000E+00
  0.0000E+00
  0.0000E+00
  0.0000E+00
  0.0000E+00
  0.0000E+00
  0.0000E+00
  0.0000E+00
  0.0000E+00
  0.0000E+00
  0.0000E+00
  0.0000E+00
  0.0000E+00
  0.0000E+00
  0.0000E+00
  0.0000E+00
  0.0000E+00
  0.0000E+00
  0.0000E+00
  0.0000E+00
  0.0000E+00
  0.0000E+00
  0.0000E+00
  0.0000E+00
  0.0000E+00
  0.0000E+00
  0.0000E+00
  0.0000E+00
  0.0000E+00
  0.0000E+00
  0.0000E+00
  0.0000E+00
  0.0000E+00
  0.0000E+00
  0.0000E+00
  0.0000E+00
  0.0000E+00
  0.0000E+00
  0.0000E+00
  0.0000E+00
  0.0000E+00
  0.0000E+00
  0.0000E+00
  0.0000E+00
  0.0000E+00
  0.0000E+00
  0.0000E+00
  0.0000E+00
  0.0000E+00
  0.0000E+00
  0.0000E+00
  0.0000E+00
  0.0000E+00
  0.0000E+00
  0.0000E+00
  0.0000E+00
  0.0000E+00
  0.0000E+00
  0.0000E+00
  0.0000E+00
  0.0000E+00
  0.0000E+00
  0.0000E+00
  0.0000E+00
  0.0000E+00
  0.0000E+00
  0.0000E+00
  0.0000E+00
  0.0000E+00
  0.0000E+00
  0.0000E+00
  0.0000E+00
  0.0000E+00
  0.0000E+00
  0.0000E+00
  0.0000E+00
  0.0000E+00
  0.0000E+00
  0.0000E+00
  0.0000E+00
  0.0000E+00
  0.0000E+00
  0.0000E+00
  0.0000E+00
  0.0000E+00
  0.0000E+00
  0.0000E+00
  0.0000E+00
  0.0000E+00
  0.0000E+00
  0.0000E+00
  0.0000E+00
  0.0000E+00
  0.0000E+00
  0.0000E+00
  0.0000E+00
  0.0000E+00
  0.0000E+00
  0.0000E+00
  0.0000E+00
  0.0000E+00
  0.0000E+00
  0.0000E+00
  0.0000E+00
  0.0000E+00
  0.0000E+00
  0.0000E+00
  0.0000E+00
  0.0000E+00
  0.0000E+00
  0.0000E+00
  0.0000E+00
  0.0000E+00
  0.0000E+00
  0.0000E+00
  0.0000E+00
  0.0000E+00
  0.0000E+00
   3.0000E+02
  4.0560E-01
  3.5215E-01
  4.0560E-01
  3.5215E-01
  3.0011E-01
  3.5215E-01
  4.0560E-01
  3.5215E-01
  4.0560E-01
  5.1958E-01
  5.0090E-01
  5.1958E-01
  5.0090E-01
  4.7656E-01
  5.0090E-01
  5.1958E-01
  5.0090E-01
  5.1958E-01
  4.8586E-01
  5.0621E-01
  4.8586E-01
  5.0621E-01
  5.2688E-01
  5.0621E-01
  4.8586E-01
  5.0621E-01
  4.8586E-01
  3.9406E-01
  4.2866E-01
  3.9406E-01
  4.2866E-01
  4.7773E-01
  4.2866E-01
  3.9406E-01
  4.2866E-01
  3.9406E-01
  3.0769E-01
  2.9950E-01
  3.0769E-01
  2.9950E-01
  2.8978E-01
  2.9950E-01
  3.0769E-01
  2.9950E-01
  3.0769E-01
  2.5280E-01
  2.1704E-01
  2.5280E-01
  2.1704E-01
  1.5888E-01
  2.1704E-01
  2.5280E-01
  2.1704E-01
  2.5280E-01
  2.9367E-01
  3.2074E-01
  2.9367E-01
  3.2074E-01
  3.5552E-01
  3.2074E-01
  2.9367E-01
  3.2074E-01
  2.9367E-01
  3.7448E-01
  4.0551E-01
  3.7448E-01
  4.0551E-01
  4.3371E-01
  4.0551E-01
  3.7448E-01
  4.0551E-01
  3.7448E-01
  2.7034E-01
  2.6482E-01
  2.7034E-01
  2.6482E-01
  2.6975E-01
  2.6482E-01
  2.7034E-01
  2.6482E-01
  2.7034E-01
  9.9815E-02
  7.6670E-02
  9.9815E-02
  7.6670E-02
  1.0571E-01
  7.6670E-02
  9.9815E-02
  7.6670E-02
  9.9815E-02
  8.0632E-02
  7.1532E-02
  8.0632E-02
  7.1532E-02
  8.9459E-02
  7.1532E-02
  8.0632E-02
  7.1532E-02
  8.0632E-02
  3.3274E-02
  4.0104E-02
  3.3274E-02
  4.0104E-02
  1.0886E-01
  4.0104E-02
  3.3274E-02
  4.0104E-02
  3.3274E-02
  9.5767E-02
  9.9170E-02
  9.5767E-02
  9.9170E-02
  1.2480E-01
  9.9170E-02
  9.5767E-02
  9.9170E-02
  9.5767E-02
  1.6967E-01
  1.7988E-01
  1.6967E-01
  1.7988E-01
  1.3168E-01
  1.7988E-01
  1.6967E-01
  1.7988E-01
  1.6967E-01
  2.7274E-01
  2.6564E-01
  2.7274E-01
  2.6564E-01
  2.5502E-01
  2.6564E-01
  2.7274E-01
  2.6564E-01
  2.7274E-01
  4.2601E-01
  4.0182E-01
  4.2601E-01
  4.0182E-01
  4.2673E-01
  4.0182E-01
  4.2601E-01
  4.0182E-01
  4.2601E-01
  5.3435E-01
  5.3608E-01
  5.3435E-01
  5.3608E-01
  5.2547E-01
  5.3608E-01
  5.3435E-01
  5.3608E-01
  5.3435E-01
  6.3164E-01
  6.2426E-01
  6.3164E-01
  6.2426E-01
  5.9649E-01
  6.2426E-01
  6.3164E-01
  6.2426E-01
  6.3164E-01
  7.6844E-01
  7.4694E-01
  7.6844E-01
  7.4694E-01
  7.3528E-01
  7.4694E-01
  7.6844E-01
  7.4694E-01
  7.6844E-01
  8.2507E-01
  8.1861E-01
  8.2507E-01
  8.1861E-01
  8.2003E-01
  8.1861E-01
  8.2507E-01
  8.1861E-01
  8.2507E-01
  8.3821E-01
  8.3385E-01
  8.3821E-01
  8.3385E-01
  8.3076E-01
  8.3385E-01
  8.3821E-01
  8.3385E-01
  8.3821E-01
