Scalar VONMISES under Dynam for nodeset
189
   0.0000E+00
  0.0000E+00
  0.0000E+00
  0.0000E+00
  0.0000E+00
  0.0000E+00
  0.0000E+00
  0.0000E+00
  0.0000E+00
  0.0000E+00
  0.0000E+00
  0.0000E+00
  0.0000E+00
  0.0000E+00
  0.0000E+00
  0.0000E+00
  0.0000E+00
  0.0000E+00
  0.0000E+00
  0.0000E+00
  0.0000E+00
  0.0000E+00
  0.0000E+00
  0.0000E+00
  0.0000E+00
  0.0000E+00
  0.0000E+00
  0.0000E+00
  0.0000E+00
  0.0000E+00
  0.0000E+00
  0.0000E+00
  0.0000E+00
  0.0000E+00
  0.0000E+00
  0.0000E+00
  0.0000E+00
  0.0000E+00
  0.0000E+00
  0.0000E+00
  0.0000E+00
  0.0000E+00
  0.0000E+00
  0.0000E+00
  0.0000E+00
  0.0000E+00
  0.0000E+00
  0.0000E+00
  0.0000E+00
  0.0000E+00
  0.0000E+00
  0.0000E+00
  0.0000E+00
  0.0000E+00
  0.0000E+00
  0.0000E+00
  0.0000E+00
  0.0000E+00
  0.0000E+00
  0.0000E+00
  0.0000E+00
  0.0000E+00
  0.0000E+00
  0.0000E+00
  0.0000E+00
  0.0000E+00
  0.0000E+00
  0.0000E+00
  0.0000E+00
  0.0000E+00
  0.0000E+00
  0.0000E+00
  0.0000E+00
  0.0000E+00
  0.0000E+00
  0.0000E+00
  0.0000E+00
  0.0000E+00
  0.0000E+00
  0.0000E+00
  0.0000E+00
  0.0000E+00
  0.0000E+00
  0.0000E+00
  0.0000E+00
  0.0000E+00
  0.0000E+00
  0.0000E+00
  0.0000E+00
  0.0000E+00
  0.0000E+00
  0.0000E+00
  0.0000E+00
  0.0000E+00
  0.0000E+00
  0.0000E+00
  0.0000E+00
  0.0000E+00
  0.0000E+00
  0.0000E+00
  0.0000E+00
  0.0000E+00
  0.0000E+00
  0.0000E+00
  0.0000E+00
  0.0000E+00
  0.0000E+00
  0.0000E+00
  0.0000E+00
  0.0000E+00
  0.0000E+00
  0.0000E+00
  0.0000E+00
  0.0000E+00
  0.0000E+00
  0.0000E+00
  0.0000E+00
  0.0000E+00
  0.0000E+00
  0.0000E+00
  0.0000E+00
  0.0000E+00
  0.0000E+00
  0.0000E+00
  0.0000E+00
  0.0000E+00
  0.0000E+00
  0.0000E+00
  0.0000E+00
  0.0000E+00
  0.0000E+00
  0.0000E+00
  0.0000E+00
  0.0000E+00
  0.0000E+00
  0.0000E+00
  0.0000E+00
  0.0000E+00
  0.0000E+00
  0.0000E+00
  0.0000E+00
  0.0000E+00
  0.0000E+00
  0.0000E+00
  0.0000E+00
  0.0000E+00
  0.0000E+00
  0.0000E+00
  0.0000E+00
  0.0000E+00
  0.0000E+00
  0.0000E+00
  0.0000E+00
  0.0000E+00
  0.0000E+00
  0.0000E+00
  0.0000E+00
  0.0000E+00
  0.0000E+00
  0.0000E+00
  0.0000E+00
  0.0000E+00
  0.0000E+00
  0.0000E+00
  0.0000E+00
  0.0000E+00
  0.0000E+00
  0.0000E+00
  0.0000E+00
  0.0000E+00
  0.0000E+00
  0.0000E+00
  0.0000E+00
  0.0000E+00
  0.0000E+00
  0.0000E+00
  0.0000E+00
  0.0000E+00
  0.0000E+00
  0.0000E+00
  0.0000E+00
  0.0000E+00
  0.0000E+00
  0.0000E+00
  0.0000E+00
  0.0000E+00
  0.0000E+00
  0.0000E+00
  0.0000E+00
  0.0000E+00
   3.0000E+01
  7.9552E+02
  7.2001E+02
  7.9552E+02
  7.2001E+02
  6.3857E+02
  7.2001E+02
  7.9552E+02
  7.2001E+02
  7.9552E+02
  1.0054E+03
  9.9593E+02
  1.0054E+03
  9.9593E+02
  9.8635E+02
  9.9593E+02
  1.0054E+03
  9.9593E+02
  1.0054E+03
  1.0060E+03
  1.0316E+03
  1.0060E+03
  1.0316E+03
  1.0586E+03
  1.0316E+03
  1.0060E+03
  1.0316E+03
  1.0060E+03
  1.0358E+03
  1.0361E+03
  1.0358E+03
  1.0361E+03
  1.0363E+03
  1.0361E+03
  1.0358E+03
  1.0361E+03
  1.0358E+03
  1.0508E+03
  1.0503E+03
  1.0508E+03
  1.0503E+03
  1.0491E+03
  1.0503E+03
  1.0508E+03
  1.0503E+03
  1.0508E+03
  1.0701E+03
  1.0694E+03
  1.0701E+03
  1.0694E+03
  1.0689E+03
  1.0694E+03
  1.0701E+03
  1.0694E+03
  1.0701E+03
  1.0939E+03
  1.0933E+03
  1.0939E+03
  1.0933E+03
  1.0927E+03
  1.0933E+03
  1.0939E+03
  1.0933E+03
  1.0939E+03
  1.1223E+03
  1.1218E+03
  1.1223E+03
  1.1218E+03
  1.1212E+03
  1.1218E+03
  1.1223E+03
  1.1218E+03
  1.1223E+03
  1.1556E+03
  1.1550E+03
  1.1556E+03
  1.1550E+03
  1.1544E+03
  1.1550E+03
  1.1556E+03
  1.1550E+03
  1.1556E+03
  1.1938E+03
  1.1932E+03
  1.1938E+03
  1.1932E+03
  1.1925E+03
  1.1932E+03
  1.1938E+03
  1.1932E+03
  1.1938E+03
  1.2371E+03
  1.2364E+03
  1.2371E+03
  1.2364E+03
  1.2358E+03
  1.2364E+03
  1.2371E+03
  1.2364E+03
  1.2371E+03
  1.2856E+03
  1.2849E+03
  1.2856E+03
  1.2849E+03
  1.2842E+03
  1.2849E+03
  1.2856E+03
  1.2849E+03
  1.2856E+03
  1.3396E+03
  1.3389E+03
  1.3396E+03
  1.3389E+03
  1.3382E+03
  1.3389E+03
  1.3396E+03
  1.3389E+03
  1.3396E+03
  1.3993E+03
  1.3986E+03
  1.3993E+03
  1.3986E+03
  1.3978E+03
  1.3986E+03
  1.3993E+03
  1.3986E+03
  1.3993E+03
  1.4650E+03
  1.4642E+03
  1.4650E+03
  1.4642E+03
  1.4634E+03
  1.4642E+03
  1.4650E+03
  1.4642E+03
  1.4650E+03
  1.5369E+03
  1.5361E+03
  1.5369E+03
  1.5361E+03
  1.5353E+03
  1.5361E+03
  1.5369E+03
  1.5361E+03
  1.5369E+03
  1.6153E+03
  1.6145E+03
  1.6153E+03
  1.6145E+03
  1.6136E+03
  1.6145E+03
  1.6153E+03
  1.6145E+03
  1.6153E+03
  1.7007E+03
  1.6998E+03
  1.7007E+03
  1.6998E+03
  1.6989E+03
  1.6998E+03
  1.7007E+03
  1.6998E+03
  1.7007E+03
  1.7924E+03
  1.7927E+03
  1.7924E+03
  1.7927E+03
  1.7929E+03
  1.7927E+03
  1.7924E+03
  1.7927E+03
  1.7924E+03
  1.8901E+03
  1.8917E+03
  1.8901E+03
  1.8917E+03
  1.8934E+03
  1.8917E+03
  1.8901E+03
  1.8917E+03
  1.8901E+03
  1.9432E+03
  1.9450E+03
  1.9432E+03
  1.9450E+03
  1.9469E+03
  1.9450E+03
  1.9432E+03
  1.9450E+03
  1.9432E+03
