Scalar VONMISES under Dynam for nodeset
189
   0.0000E+00
  0.0000E+00
  0.0000E+00
  0.0000E+00
  0.0000E+00
  0.0000E+00
  0.0000E+00
  0.0000E+00
  0.0000E+00
  0.0000E+00
  0.0000E+00
  0.0000E+00
  0.0000E+00
  0.0000E+00
  0.0000E+00
  0.0000E+00
  0.0000E+00
  0.0000E+00
  0.0000E+00
  0.0000E+00
  0.0000E+00
  0.0000E+00
  0.0000E+00
  0.0000E+00
  0.0000E+00
  0.0000E+00
  0.0000E+00
  0.0000E+00
  0.0000E+00
  0.0000E+00
  0.0000E+00
  0.0000E+00
  0.0000E+00
  0.0000E+00
  0.0000E+00
  0.0000E+00
  0.0000E+00
  0.0000E+00
  0.0000E+00
  0.0000E+00
  0.0000E+00
  0.0000E+00
  0.0000E+00
  0.0000E+00
  0.0000E+00
  0.0000E+00
  0.0000E+00
  0.0000E+00
  0.0000E+00
  0.0000E+00
  0.0000E+00
  0.0000E+00
  0.0000E+00
  0.0000E+00
  0.0000E+00
  0.0000E+00
  0.0000E+00
  0.0000E+00
  0.0000E+00
  0.0000E+00
  0.0000E+00
  0.0000E+00
  0.0000E+00
  0.0000E+00
  0.0000E+00
  0.0000E+00
  0.0000E+00
  0.0000E+00
  0.0000E+00
  0.0000E+00
  0.0000E+00
  0.0000E+00
  0.0000E+00
  0.0000E+00
  0.0000E+00
  0.0000E+00
  0.0000E+00
  0.0000E+00
  0.0000E+00
  0.0000E+00
  0.0000E+00
  0.0000E+00
  0.0000E+00
  0.0000E+00
  0.0000E+00
  0.0000E+00
  0.0000E+00
  0.0000E+00
  0.0000E+00
  0.0000E+00
  0.0000E+00
  0.0000E+00
  0.0000E+00
  0.0000E+00
  0.0000E+00
  0.0000E+00
  0.0000E+00
  0.0000E+00
  0.0000E+00
  0.0000E+00
  0.0000E+00
  0.0000E+00
  0.0000E+00
  0.0000E+00
  0.0000E+00
  0.0000E+00
  0.0000E+00
  0.0000E+00
  0.0000E+00
  0.0000E+00
  0.0000E+00
  0.0000E+00
  0.0000E+00
  0.0000E+00
  0.0000E+00
  0.0000E+00
  0.0000E+00
  0.0000E+00
  0.0000E+00
  0.0000E+00
  0.0000E+00
  0.0000E+00
  0.0000E+00
  0.0000E+00
  0.0000E+00
  0.0000E+00
  0.0000E+00
  0.0000E+00
  0.0000E+00
  0.0000E+00
  0.0000E+00
  0.0000E+00
  0.0000E+00
  0.0000E+00
  0.0000E+00
  0.0000E+00
  0.0000E+00
  0.0000E+00
  0.0000E+00
  0.0000E+00
  0.0000E+00
  0.0000E+00
  0.0000E+00
  0.0000E+00
  0.0000E+00
  0.0000E+00
  0.0000E+00
  0.0000E+00
  0.0000E+00
  0.0000E+00
  0.0000E+00
  0.0000E+00
  0.0000E+00
  0.0000E+00
  0.0000E+00
  0.0000E+00
  0.0000E+00
  0.0000E+00
  0.0000E+00
  0.0000E+00
  0.0000E+00
  0.0000E+00
  0.0000E+00
  0.0000E+00
  0.0000E+00
  0.0000E+00
  0.0000E+00
  0.0000E+00
  0.0000E+00
  0.0000E+00
  0.0000E+00
  0.0000E+00
  0.0000E+00
  0.0000E+00
  0.0000E+00
  0.0000E+00
  0.0000E+00
  0.0000E+00
  0.0000E+00
  0.0000E+00
  0.0000E+00
  0.0000E+00
  0.0000E+00
  0.0000E+00
  0.0000E+00
  0.0000E+00
  0.0000E+00
  0.0000E+00
  0.0000E+00
  0.0000E+00
   1.0000E-04
  1.7547E-16
  1.7547E-16
  1.7547E-16
  1.7547E-16
  1.7547E-16
  1.7547E-16
  1.7547E-16
  1.7547E-16
  1.7547E-16
  5.2641E-16
  5.2641E-16
  5.2641E-16
  5.2641E-16
  5.2641E-16
  5.2641E-16
  5.2641E-16
  5.2641E-16
  5.2641E-16
  2.1056E-15
  2.1056E-15
  2.1056E-15
  2.1056E-15
  2.1056E-15
  2.1056E-15
  2.1056E-15
  2.1056E-15
  2.1056E-15
  7.8961E-15
  7.8961E-15
  7.8961E-15
  7.8961E-15
  7.8961E-15
  7.8961E-15
  7.8961E-15
  7.8961E-15
  7.8961E-15
  2.9479E-14
  2.9479E-14
  2.9479E-14
  2.9479E-14
  2.9479E-14
  2.9479E-14
  2.9479E-14
  2.9479E-14
  2.9479E-14
  1.1002E-13
  1.1002E-13
  1.1002E-13
  1.1002E-13
  1.1002E-13
  1.1002E-13
  1.1002E-13
  1.1002E-13
  1.1002E-13
  4.1060E-13
  4.1060E-13
  4.1060E-13
  4.1060E-13
  4.1060E-13
  4.1060E-13
  4.1060E-13
  4.1060E-13
  4.1060E-13
  1.5324E-12
  1.5324E-12
  1.5324E-12
  1.5324E-12
  1.5324E-12
  1.5324E-12
  1.5324E-12
  1.5324E-12
  1.5324E-12
  5.7189E-12
  5.7189E-12
  5.7189E-12
  5.7189E-12
  5.7189E-12
  5.7189E-12
  5.7189E-12
  5.7189E-12
  5.7189E-12
  2.1343E-11
  2.1343E-11
  2.1343E-11
  2.1343E-11
  2.1343E-11
  2.1343E-11
  2.1343E-11
  2.1343E-11
  2.1343E-11
  7.9654E-11
  7.9654E-11
  7.9654E-11
  7.9654E-11
  7.9654E-11
  7.9654E-11
  7.9654E-11
  7.9654E-11
  7.9654E-11
  2.9727E-10
  2.9727E-10
  2.9727E-10
  2.9727E-10
  2.9727E-10
  2.9727E-10
  2.9727E-10
  2.9727E-10
  2.9727E-10
  1.1094E-09
  1.1094E-09
  1.1094E-09
  1.1094E-09
  1.1094E-09
  1.1094E-09
  1.1094E-09
  1.1094E-09
  1.1094E-09
  4.1405E-09
  4.1405E-09
  4.1405E-09
  4.1405E-09
  4.1405E-09
  4.1405E-09
  4.1405E-09
  4.1405E-09
  4.1405E-09
  1.5452E-08
  1.5452E-08
  1.5452E-08
  1.5452E-08
  1.5452E-08
  1.5452E-08
  1.5452E-08
  1.5452E-08
  1.5452E-08
  5.7669E-08
  5.7669E-08
  5.7669E-08
  5.7669E-08
  5.7669E-08
  5.7669E-08
  5.7669E-08
  5.7669E-08
  5.7669E-08
  2.1522E-07
  2.1522E-07
  2.1522E-07
  2.1522E-07
  2.1522E-07
  2.1522E-07
  2.1522E-07
  2.1522E-07
  2.1522E-07
  8.0323E-07
  8.0323E-07
  8.0323E-07
  8.0323E-07
  8.0323E-07
  8.0323E-07
  8.0323E-07
  8.0323E-07
  8.0323E-07
  2.9977E-06
  2.9977E-06
  2.9977E-06
  2.9977E-06
  2.9977E-06
  2.9977E-06
  2.9977E-06
  2.9977E-06
  2.9977E-06
  1.1188E-05
  1.1188E-05
  1.1188E-05
  1.1188E-05
  1.1188E-05
  1.1188E-05
  1.1188E-05
  1.1188E-05
  1.1188E-05
  1.7647E-05
  1.7647E-05
  1.7647E-05
  1.7647E-05
  1.7647E-05
  1.7647E-05
  1.7647E-05
  1.7647E-05
  1.7647E-05
   2.0000E-04
  7.0188E-16
  7.0188E-16
  7.0188E-16
  7.0188E-16
  7.0188E-16
  7.0188E-16
  7.0188E-16
  7.0188E-16
  7.0188E-16
  2.1056E-15
  2.1056E-15
  2.1056E-15
  2.1056E-15
  2.1056E-15
  2.1056E-15
  2.1056E-15
  2.1056E-15
  2.1056E-15
  8.4225E-15
  8.4225E-15
  8.4225E-15
  8.4225E-15
  8.4225E-15
  8.4225E-15
  8.4225E-15
  8.4225E-15
  8.4225E-15
  3.1584E-14
  3.1584E-14
  3.1584E-14
  3.1584E-14
  3.1584E-14
  3.1584E-14
  3.1584E-14
  3.1584E-14
  3.1584E-14
  1.1792E-13
  1.1792E-13
  1.1792E-13
  1.1792E-13
  1.1792E-13
  1.1792E-13
  1.1792E-13
  1.1792E-13
  1.1792E-13
  4.4008E-13
  4.4008E-13
  4.4008E-13
  4.4008E-13
  4.4008E-13
  4.4008E-13
  4.4008E-13
  4.4008E-13
  4.4008E-13
  1.6424E-12
  1.6424E-12
  1.6424E-12
  1.6424E-12
  1.6424E-12
  1.6424E-12
  1.6424E-12
  1.6424E-12
  1.6424E-12
  6.1295E-12
  6.1295E-12
  6.1295E-12
  6.1295E-12
  6.1295E-12
  6.1295E-12
  6.1295E-12
  6.1295E-12
  6.1295E-12
  2.2876E-11
  2.2876E-11
  2.2876E-11
  2.2876E-11
  2.2876E-11
  2.2876E-11
  2.2876E-11
  2.2876E-11
  2.2876E-11
  8.5373E-11
  8.5373E-11
  8.5373E-11
  8.5373E-11
  8.5373E-11
  8.5373E-11
  8.5373E-11
  8.5373E-11
  8.5373E-11
  3.1862E-10
  3.1862E-10
  3.1862E-10
  3.1862E-10
  3.1862E-10
  3.1862E-10
  3.1862E-10
  3.1862E-10
  3.1862E-10
  1.1891E-09
  1.1891E-09
  1.1891E-09
  1.1891E-09
  1.1891E-09
  1.1891E-09
  1.1891E-09
  1.1891E-09
  1.1891E-09
  4.4377E-09
  4.4377E-09
  4.4377E-09
  4.4377E-09
  4.4377E-09
  4.4377E-09
  4.4377E-09
  4.4377E-09
  4.4377E-09
  1.6562E-08
  1.6562E-08
  1.6562E-08
  1.6562E-08
  1.6562E-08
  1.6562E-08
  1.6562E-08
  1.6562E-08
  1.6562E-08
  6.1810E-08
  6.1810E-08
  6.1810E-08
  6.1810E-08
  6.1810E-08
  6.1810E-08
  6.1810E-08
  6.1810E-08
  6.1810E-08
  2.3068E-07
  2.3068E-07
  2.3068E-07
  2.3068E-07
  2.3068E-07
  2.3068E-07
  2.3068E-07
  2.3068E-07
  2.3068E-07
  8.6090E-07
  8.6090E-07
  8.6090E-07
  8.6090E-07
  8.6090E-07
  8.6090E-07
  8.6090E-07
  8.6090E-07
  8.6090E-07
  3.2129E-06
  3.2129E-06
  3.2129E-06
  3.2129E-06
  3.2129E-06
  3.2129E-06
  3.2129E-06
  3.2129E-06
  3.2129E-06
  1.1991E-05
  1.1991E-05
  1.1991E-05
  1.1991E-05
  1.1991E-05
  1.1991E-05
  1.1991E-05
  1.1991E-05
  1.1991E-05
  4.4750E-05
  4.4750E-05
  4.4750E-05
  4.4750E-05
  4.4750E-05
  4.4750E-05
  4.4750E-05
  4.4750E-05
  4.4750E-05
  7.0587E-05
  7.0587E-05
  7.0587E-05
  7.0587E-05
  7.0587E-05
  7.0587E-05
  7.0587E-05
  7.0587E-05
  7.0587E-05
   3.0000E-04
  1.5792E-15
  1.5792E-15
  1.5792E-15
  1.5792E-15
  1.5792E-15
  1.5792E-15
  1.5792E-15
  1.5792E-15
  1.5792E-15
  4.7377E-15
  4.7377E-15
  4.7377E-15
  4.7377E-15
  4.7377E-15
  4.7377E-15
  4.7377E-15
  4.7377E-15
  4.7377E-15
  1.8951E-14
  1.8951E-14
  1.8951E-14
  1.8951E-14
  1.8951E-14
  1.8951E-14
  1.8951E-14
  1.8951E-14
  1.8951E-14
  7.1065E-14
  7.1065E-14
  7.1065E-14
  7.1065E-14
  7.1065E-14
  7.1065E-14
  7.1065E-14
  7.1065E-14
  7.1065E-14
  2.6531E-13
  2.6531E-13
  2.6531E-13
  2.6531E-13
  2.6531E-13
  2.6531E-13
  2.6531E-13
  2.6531E-13
  2.6531E-13
  9.9017E-13
  9.9017E-13
  9.9017E-13
  9.9017E-13
  9.9017E-13
  9.9017E-13
  9.9017E-13
  9.9017E-13
  9.9017E-13
  3.6954E-12
  3.6954E-12
  3.6954E-12
  3.6954E-12
  3.6954E-12
  3.6954E-12
  3.6954E-12
  3.6954E-12
  3.6954E-12
  1.3791E-11
  1.3791E-11
  1.3791E-11
  1.3791E-11
  1.3791E-11
  1.3791E-11
  1.3791E-11
  1.3791E-11
  1.3791E-11
  5.1470E-11
  5.1470E-11
  5.1470E-11
  5.1470E-11
  5.1470E-11
  5.1470E-11
  5.1470E-11
  5.1470E-11
  5.1470E-11
  1.9209E-10
  1.9209E-10
  1.9209E-10
  1.9209E-10
  1.9209E-10
  1.9209E-10
  1.9209E-10
  1.9209E-10
  1.9209E-10
  7.1688E-10
  7.1688E-10
  7.1688E-10
  7.1688E-10
  7.1688E-10
  7.1688E-10
  7.1688E-10
  7.1688E-10
  7.1688E-10
  2.6754E-09
  2.6754E-09
  2.6754E-09
  2.6754E-09
  2.6754E-09
  2.6754E-09
  2.6754E-09
  2.6754E-09
  2.6754E-09
  9.9849E-09
  9.9849E-09
  9.9849E-09
  9.9849E-09
  9.9849E-09
  9.9849E-09
  9.9849E-09
  9.9849E-09
  9.9849E-09
  3.7264E-08
  3.7264E-08
  3.7264E-08
  3.7264E-08
  3.7264E-08
  3.7264E-08
  3.7264E-08
  3.7264E-08
  3.7264E-08
  1.3907E-07
  1.3907E-07
  1.3907E-07
  1.3907E-07
  1.3907E-07
  1.3907E-07
  1.3907E-07
  1.3907E-07
  1.3907E-07
  5.1902E-07
  5.1902E-07
  5.1902E-07
  5.1902E-07
  5.1902E-07
  5.1902E-07
  5.1902E-07
  5.1902E-07
  5.1902E-07
  1.9370E-06
  1.9370E-06
  1.9370E-06
  1.9370E-06
  1.9370E-06
  1.9370E-06
  1.9370E-06
  1.9370E-06
  1.9370E-06
  7.2291E-06
  7.2291E-06
  7.2291E-06
  7.2291E-06
  7.2291E-06
  7.2291E-06
  7.2291E-06
  7.2291E-06
  7.2291E-06
  2.6979E-05
  2.6979E-05
  2.6979E-05
  2.6979E-05
  2.6979E-05
  2.6979E-05
  2.6979E-05
  2.6979E-05
  2.6979E-05
  1.0069E-04
  1.0069E-04
  1.0069E-04
  1.0069E-04
  1.0069E-04
  1.0069E-04
  1.0069E-04
  1.0069E-04
  1.0069E-04
  1.5882E-04
  1.5882E-04
  1.5882E-04
  1.5882E-04
  1.5882E-04
  1.5882E-04
  1.5882E-04
  1.5882E-04
  1.5882E-04
   4.0000E-04
  2.8075E-15
  2.8075E-15
  2.8075E-15
  2.8075E-15
  2.8075E-15
  2.8075E-15
  2.8075E-15
  2.8075E-15
  2.8075E-15
  8.4225E-15
  8.4225E-15
  8.4225E-15
  8.4225E-15
  8.4225E-15
  8.4225E-15
  8.4225E-15
  8.4225E-15
  8.4225E-15
  3.3690E-14
  3.3690E-14
  3.3690E-14
  3.3690E-14
  3.3690E-14
  3.3690E-14
  3.3690E-14
  3.3690E-14
  3.3690E-14
  1.2634E-13
  1.2634E-13
  1.2634E-13
  1.2634E-13
  1.2634E-13
  1.2634E-13
  1.2634E-13
  1.2634E-13
  1.2634E-13
  4.7166E-13
  4.7166E-13
  4.7166E-13
  4.7166E-13
  4.7166E-13
  4.7166E-13
  4.7166E-13
  4.7166E-13
  4.7166E-13
  1.7603E-12
  1.7603E-12
  1.7603E-12
  1.7603E-12
  1.7603E-12
  1.7603E-12
  1.7603E-12
  1.7603E-12
  1.7603E-12
  6.5695E-12
  6.5695E-12
  6.5695E-12
  6.5695E-12
  6.5695E-12
  6.5695E-12
  6.5695E-12
  6.5695E-12
  6.5695E-12
  2.4518E-11
  2.4518E-11
  2.4518E-11
  2.4518E-11
  2.4518E-11
  2.4518E-11
  2.4518E-11
  2.4518E-11
  2.4518E-11
  9.1502E-11
  9.1502E-11
  9.1502E-11
  9.1502E-11
  9.1502E-11
  9.1502E-11
  9.1502E-11
  9.1502E-11
  9.1502E-11
  3.4149E-10
  3.4149E-10
  3.4149E-10
  3.4149E-10
  3.4149E-10
  3.4149E-10
  3.4149E-10
  3.4149E-10
  3.4149E-10
  1.2745E-09
  1.2745E-09
  1.2745E-09
  1.2745E-09
  1.2745E-09
  1.2745E-09
  1.2745E-09
  1.2745E-09
  1.2745E-09
  4.7564E-09
  4.7564E-09
  4.7564E-09
  4.7564E-09
  4.7564E-09
  4.7564E-09
  4.7564E-09
  4.7564E-09
  4.7564E-09
  1.7751E-08
  1.7751E-08
  1.7751E-08
  1.7751E-08
  1.7751E-08
  1.7751E-08
  1.7751E-08
  1.7751E-08
  1.7751E-08
  6.6247E-08
  6.6247E-08
  6.6247E-08
  6.6247E-08
  6.6247E-08
  6.6247E-08
  6.6247E-08
  6.6247E-08
  6.6247E-08
  2.4724E-07
  2.4724E-07
  2.4724E-07
  2.4724E-07
  2.4724E-07
  2.4724E-07
  2.4724E-07
  2.4724E-07
  2.4724E-07
  9.2271E-07
  9.2271E-07
  9.2271E-07
  9.2271E-07
  9.2271E-07
  9.2271E-07
  9.2271E-07
  9.2271E-07
  9.2271E-07
  3.4436E-06
  3.4436E-06
  3.4436E-06
  3.4436E-06
  3.4436E-06
  3.4436E-06
  3.4436E-06
  3.4436E-06
  3.4436E-06
  1.2852E-05
  1.2852E-05
  1.2852E-05
  1.2852E-05
  1.2852E-05
  1.2852E-05
  1.2852E-05
  1.2852E-05
  1.2852E-05
  4.7963E-05
  4.7963E-05
  4.7963E-05
  4.7963E-05
  4.7963E-05
  4.7963E-05
  4.7963E-05
  4.7963E-05
  4.7963E-05
  1.7900E-04
  1.7900E-04
  1.7900E-04
  1.7900E-04
  1.7900E-04
  1.7900E-04
  1.7900E-04
  1.7900E-04
  1.7900E-04
  2.8235E-04
  2.8235E-04
  2.8235E-04
  2.8235E-04
  2.8235E-04
  2.8235E-04
  2.8235E-04
  2.8235E-04
  2.8235E-04
   5.0000E-04
  4.3867E-15
  4.3867E-15
  4.3867E-15
  4.3867E-15
  4.3867E-15
  4.3867E-15
  4.3867E-15
  4.3867E-15
  4.3867E-15
  1.3160E-14
  1.3160E-14
  1.3160E-14
  1.3160E-14
  1.3160E-14
  1.3160E-14
  1.3160E-14
  1.3160E-14
  1.3160E-14
  5.2640E-14
  5.2640E-14
  5.2640E-14
  5.2640E-14
  5.2640E-14
  5.2640E-14
  5.2640E-14
  5.2640E-14
  5.2640E-14
  1.9740E-13
  1.9740E-13
  1.9740E-13
  1.9740E-13
  1.9740E-13
  1.9740E-13
  1.9740E-13
  1.9740E-13
  1.9740E-13
  7.3697E-13
  7.3697E-13
  7.3697E-13
  7.3697E-13
  7.3697E-13
  7.3697E-13
  7.3697E-13
  7.3697E-13
  7.3697E-13
  2.7505E-12
  2.7505E-12
  2.7505E-12
  2.7505E-12
  2.7505E-12
  2.7505E-12
  2.7505E-12
  2.7505E-12
  2.7505E-12
  1.0265E-11
  1.0265E-11
  1.0265E-11
  1.0265E-11
  1.0265E-11
  1.0265E-11
  1.0265E-11
  1.0265E-11
  1.0265E-11
  3.8309E-11
  3.8309E-11
  3.8309E-11
  3.8309E-11
  3.8309E-11
  3.8309E-11
  3.8309E-11
  3.8309E-11
  3.8309E-11
  1.4297E-10
  1.4297E-10
  1.4297E-10
  1.4297E-10
  1.4297E-10
  1.4297E-10
  1.4297E-10
  1.4297E-10
  1.4297E-10
  5.3358E-10
  5.3358E-10
  5.3358E-10
  5.3358E-10
  5.3358E-10
  5.3358E-10
  5.3358E-10
  5.3358E-10
  5.3358E-10
  1.9913E-09
  1.9913E-09
  1.9913E-09
  1.9913E-09
  1.9913E-09
  1.9913E-09
  1.9913E-09
  1.9913E-09
  1.9913E-09
  7.4318E-09
  7.4318E-09
  7.4318E-09
  7.4318E-09
  7.4318E-09
  7.4318E-09
  7.4318E-09
  7.4318E-09
  7.4318E-09
  2.7736E-08
  2.7736E-08
  2.7736E-08
  2.7736E-08
  2.7736E-08
  2.7736E-08
  2.7736E-08
  2.7736E-08
  2.7736E-08
  1.0351E-07
  1.0351E-07
  1.0351E-07
  1.0351E-07
  1.0351E-07
  1.0351E-07
  1.0351E-07
  1.0351E-07
  1.0351E-07
  3.8631E-07
  3.8631E-07
  3.8631E-07
  3.8631E-07
  3.8631E-07
  3.8631E-07
  3.8631E-07
  3.8631E-07
  3.8631E-07
  1.4417E-06
  1.4417E-06
  1.4417E-06
  1.4417E-06
  1.4417E-06
  1.4417E-06
  1.4417E-06
  1.4417E-06
  1.4417E-06
  5.3806E-06
  5.3806E-06
  5.3806E-06
  5.3806E-06
  5.3806E-06
  5.3806E-06
  5.3806E-06
  5.3806E-06
  5.3806E-06
  2.0081E-05
  2.0081E-05
  2.0081E-05
  2.0081E-05
  2.0081E-05
  2.0081E-05
  2.0081E-05
  2.0081E-05
  2.0081E-05
  7.4942E-05
  7.4942E-05
  7.4942E-05
  7.4942E-05
  7.4942E-05
  7.4942E-05
  7.4942E-05
  7.4942E-05
  7.4942E-05
  2.7969E-04
  2.7969E-04
  2.7969E-04
  2.7969E-04
  2.7969E-04
  2.7969E-04
  2.7969E-04
  2.7969E-04
  2.7969E-04
  4.4117E-04
  4.4117E-04
  4.4117E-04
  4.4117E-04
  4.4117E-04
  4.4117E-04
  4.4117E-04
  4.4117E-04
  4.4117E-04
   6.0000E-04
  6.3168E-15
  6.3168E-15
  6.3168E-15
  6.3168E-15
  6.3168E-15
  6.3168E-15
  6.3168E-15
  6.3168E-15
  6.3168E-15
  1.8951E-14
  1.8951E-14
  1.8951E-14
  1.8951E-14
  1.8951E-14
  1.8951E-14
  1.8951E-14
  1.8951E-14
  1.8951E-14
  7.5802E-14
  7.5802E-14
  7.5802E-14
  7.5802E-14
  7.5802E-14
  7.5802E-14
  7.5802E-14
  7.5802E-14
  7.5802E-14
  2.8426E-13
  2.8426E-13
  2.8426E-13
  2.8426E-13
  2.8426E-13
  2.8426E-13
  2.8426E-13
  2.8426E-13
  2.8426E-13
  1.0612E-12
  1.0612E-12
  1.0612E-12
  1.0612E-12
  1.0612E-12
  1.0612E-12
  1.0612E-12
  1.0612E-12
  1.0612E-12
  3.9607E-12
  3.9607E-12
  3.9607E-12
  3.9607E-12
  3.9607E-12
  3.9607E-12
  3.9607E-12
  3.9607E-12
  3.9607E-12
  1.4781E-11
  1.4781E-11
  1.4781E-11
  1.4781E-11
  1.4781E-11
  1.4781E-11
  1.4781E-11
  1.4781E-11
  1.4781E-11
  5.5165E-11
  5.5165E-11
  5.5165E-11
  5.5165E-11
  5.5165E-11
  5.5165E-11
  5.5165E-11
  5.5165E-11
  5.5165E-11
  2.0588E-10
  2.0588E-10
  2.0588E-10
  2.0588E-10
  2.0588E-10
  2.0588E-10
  2.0588E-10
  2.0588E-10
  2.0588E-10
  7.6835E-10
  7.6835E-10
  7.6835E-10
  7.6835E-10
  7.6835E-10
  7.6835E-10
  7.6835E-10
  7.6835E-10
  7.6835E-10
  2.8675E-09
  2.8675E-09
  2.8675E-09
  2.8675E-09
  2.8675E-09
  2.8675E-09
  2.8675E-09
  2.8675E-09
  2.8675E-09
  1.0702E-08
  1.0702E-08
  1.0702E-08
  1.0702E-08
  1.0702E-08
  1.0702E-08
  1.0702E-08
  1.0702E-08
  1.0702E-08
  3.9940E-08
  3.9940E-08
  3.9940E-08
  3.9940E-08
  3.9940E-08
  3.9940E-08
  3.9940E-08
  3.9940E-08
  3.9940E-08
  1.4906E-07
  1.4906E-07
  1.4906E-07
  1.4906E-07
  1.4906E-07
  1.4906E-07
  1.4906E-07
  1.4906E-07
  1.4906E-07
  5.5629E-07
  5.5629E-07
  5.5629E-07
  5.5629E-07
  5.5629E-07
  5.5629E-07
  5.5629E-07
  5.5629E-07
  5.5629E-07
  2.0761E-06
  2.0761E-06
  2.0761E-06
  2.0761E-06
  2.0761E-06
  2.0761E-06
  2.0761E-06
  2.0761E-06
  2.0761E-06
  7.7481E-06
  7.7481E-06
  7.7481E-06
  7.7481E-06
  7.7481E-06
  7.7481E-06
  7.7481E-06
  7.7481E-06
  7.7481E-06
  2.8916E-05
  2.8916E-05
  2.8916E-05
  2.8916E-05
  2.8916E-05
  2.8916E-05
  2.8916E-05
  2.8916E-05
  2.8916E-05
  1.0792E-04
  1.0792E-04
  1.0792E-04
  1.0792E-04
  1.0792E-04
  1.0792E-04
  1.0792E-04
  1.0792E-04
  1.0792E-04
  4.0275E-04
  4.0275E-04
  4.0275E-04
  4.0275E-04
  4.0275E-04
  4.0275E-04
  4.0275E-04
  4.0275E-04
  4.0275E-04
  6.3528E-04
  6.3528E-04
  6.3528E-04
  6.3528E-04
  6.3528E-04
  6.3528E-04
  6.3528E-04
  6.3528E-04
  6.3528E-04
   7.0000E-04
  8.5979E-15
  8.5979E-15
  8.5979E-15
  8.5979E-15
  8.5979E-15
  8.5979E-15
  8.5979E-15
  8.5979E-15
  8.5979E-15
  2.5794E-14
  2.5794E-14
  2.5794E-14
  2.5794E-14
  2.5794E-14
  2.5794E-14
  2.5794E-14
  2.5794E-14
  2.5794E-14
  1.0317E-13
  1.0317E-13
  1.0317E-13
  1.0317E-13
  1.0317E-13
  1.0317E-13
  1.0317E-13
  1.0317E-13
  1.0317E-13
  3.8691E-13
  3.8691E-13
  3.8691E-13
  3.8691E-13
  3.8691E-13
  3.8691E-13
  3.8691E-13
  3.8691E-13
  3.8691E-13
  1.4444E-12
  1.4444E-12
  1.4444E-12
  1.4444E-12
  1.4444E-12
  1.4444E-12
  1.4444E-12
  1.4444E-12
  1.4444E-12
  5.3909E-12
  5.3909E-12
  5.3909E-12
  5.3909E-12
  5.3909E-12
  5.3909E-12
  5.3909E-12
  5.3909E-12
  5.3909E-12
  2.0119E-11
  2.0119E-11
  2.0119E-11
  2.0119E-11
  2.0119E-11
  2.0119E-11
  2.0119E-11
  2.0119E-11
  2.0119E-11
  7.5086E-11
  7.5086E-11
  7.5086E-11
  7.5086E-11
  7.5086E-11
  7.5086E-11
  7.5086E-11
  7.5086E-11
  7.5086E-11
  2.8022E-10
  2.8022E-10
  2.8022E-10
  2.8022E-10
  2.8022E-10
  2.8022E-10
  2.8022E-10
  2.8022E-10
  2.8022E-10
  1.0458E-09
  1.0458E-09
  1.0458E-09
  1.0458E-09
  1.0458E-09
  1.0458E-09
  1.0458E-09
  1.0458E-09
  1.0458E-09
  3.9030E-09
  3.9030E-09
  3.9030E-09
  3.9030E-09
  3.9030E-09
  3.9030E-09
  3.9030E-09
  3.9030E-09
  3.9030E-09
  1.4566E-08
  1.4566E-08
  1.4566E-08
  1.4566E-08
  1.4566E-08
  1.4566E-08
  1.4566E-08
  1.4566E-08
  1.4566E-08
  5.4362E-08
  5.4362E-08
  5.4362E-08
  5.4362E-08
  5.4362E-08
  5.4362E-08
  5.4362E-08
  5.4362E-08
  5.4362E-08
  2.0288E-07
  2.0288E-07
  2.0288E-07
  2.0288E-07
  2.0288E-07
  2.0288E-07
  2.0288E-07
  2.0288E-07
  2.0288E-07
  7.5717E-07
  7.5717E-07
  7.5717E-07
  7.5717E-07
  7.5717E-07
  7.5717E-07
  7.5717E-07
  7.5717E-07
  7.5717E-07
  2.8258E-06
  2.8258E-06
  2.8258E-06
  2.8258E-06
  2.8258E-06
  2.8258E-06
  2.8258E-06
  2.8258E-06
  2.8258E-06
  1.0546E-05
  1.0546E-05
  1.0546E-05
  1.0546E-05
  1.0546E-05
  1.0546E-05
  1.0546E-05
  1.0546E-05
  1.0546E-05
  3.9358E-05
  3.9358E-05
  3.9358E-05
  3.9358E-05
  3.9358E-05
  3.9358E-05
  3.9358E-05
  3.9358E-05
  3.9358E-05
  1.4689E-04
  1.4689E-04
  1.4689E-04
  1.4689E-04
  1.4689E-04
  1.4689E-04
  1.4689E-04
  1.4689E-04
  1.4689E-04
  5.4819E-04
  5.4819E-04
  5.4819E-04
  5.4819E-04
  5.4819E-04
  5.4819E-04
  5.4819E-04
  5.4819E-04
  5.4819E-04
  8.6469E-04
  8.6469E-04
  8.6469E-04
  8.6469E-04
  8.6469E-04
  8.6469E-04
  8.6469E-04
  8.6469E-04
  8.6469E-04
   8.0000E-04
  1.1230E-14
  1.1230E-14
  1.1230E-14
  1.1230E-14
  1.1230E-14
  1.1230E-14
  1.1230E-14
  1.1230E-14
  1.1230E-14
  3.3690E-14
  3.3690E-14
  3.3690E-14
  3.3690E-14
  3.3690E-14
  3.3690E-14
  3.3690E-14
  3.3690E-14
  3.3690E-14
  1.3476E-13
  1.3476E-13
  1.3476E-13
  1.3476E-13
  1.3476E-13
  1.3476E-13
  1.3476E-13
  1.3476E-13
  1.3476E-13
  5.0534E-13
  5.0534E-13
  5.0534E-13
  5.0534E-13
  5.0534E-13
  5.0534E-13
  5.0534E-13
  5.0534E-13
  5.0534E-13
  1.8866E-12
  1.8866E-12
  1.8866E-12
  1.8866E-12
  1.8866E-12
  1.8866E-12
  1.8866E-12
  1.8866E-12
  1.8866E-12
  7.0411E-12
  7.0411E-12
  7.0411E-12
  7.0411E-12
  7.0411E-12
  7.0411E-12
  7.0411E-12
  7.0411E-12
  7.0411E-12
  2.6278E-11
  2.6278E-11
  2.6278E-11
  2.6278E-11
  2.6278E-11
  2.6278E-11
  2.6278E-11
  2.6278E-11
  2.6278E-11
  9.8071E-11
  9.8071E-11
  9.8071E-11
  9.8071E-11
  9.8071E-11
  9.8071E-11
  9.8071E-11
  9.8071E-11
  9.8071E-11
  3.6601E-10
  3.6601E-10
  3.6601E-10
  3.6601E-10
  3.6601E-10
  3.6601E-10
  3.6601E-10
  3.6601E-10
  3.6601E-10
  1.3660E-09
  1.3660E-09
  1.3660E-09
  1.3660E-09
  1.3660E-09
  1.3660E-09
  1.3660E-09
  1.3660E-09
  1.3660E-09
  5.0978E-09
  5.0978E-09
  5.0978E-09
  5.0978E-09
  5.0978E-09
  5.0978E-09
  5.0978E-09
  5.0978E-09
  5.0978E-09
  1.9025E-08
  1.9025E-08
  1.9025E-08
  1.9025E-08
  1.9025E-08
  1.9025E-08
  1.9025E-08
  1.9025E-08
  1.9025E-08
  7.1003E-08
  7.1003E-08
  7.1003E-08
  7.1003E-08
  7.1003E-08
  7.1003E-08
  7.1003E-08
  7.1003E-08
  7.1003E-08
  2.6499E-07
  2.6499E-07
  2.6499E-07
  2.6499E-07
  2.6499E-07
  2.6499E-07
  2.6499E-07
  2.6499E-07
  2.6499E-07
  9.8895E-07
  9.8895E-07
  9.8895E-07
  9.8895E-07
  9.8895E-07
  9.8895E-07
  9.8895E-07
  9.8895E-07
  9.8895E-07
  3.6908E-06
  3.6908E-06
  3.6908E-06
  3.6908E-06
  3.6908E-06
  3.6908E-06
  3.6908E-06
  3.6908E-06
  3.6908E-06
  1.3774E-05
  1.3774E-05
  1.3774E-05
  1.3774E-05
  1.3774E-05
  1.3774E-05
  1.3774E-05
  1.3774E-05
  1.3774E-05
  5.1407E-05
  5.1407E-05
  5.1407E-05
  5.1407E-05
  5.1407E-05
  5.1407E-05
  5.1407E-05
  5.1407E-05
  5.1407E-05
  1.9185E-04
  1.9185E-04
  1.9185E-04
  1.9185E-04
  1.9185E-04
  1.9185E-04
  1.9185E-04
  1.9185E-04
  1.9185E-04
  7.1600E-04
  7.1600E-04
  7.1600E-04
  7.1600E-04
  7.1600E-04
  7.1600E-04
  7.1600E-04
  7.1600E-04
  7.1600E-04
  1.1294E-03
  1.1294E-03
  1.1294E-03
  1.1294E-03
  1.1294E-03
  1.1294E-03
  1.1294E-03
  1.1294E-03
  1.1294E-03
   9.0000E-04
  1.4213E-14
  1.4213E-14
  1.4213E-14
  1.4213E-14
  1.4213E-14
  1.4213E-14
  1.4213E-14
  1.4213E-14
  1.4213E-14
  4.2638E-14
  4.2638E-14
  4.2638E-14
  4.2638E-14
  4.2638E-14
  4.2638E-14
  4.2638E-14
  4.2638E-14
  4.2638E-14
  1.7055E-13
  1.7055E-13
  1.7055E-13
  1.7055E-13
  1.7055E-13
  1.7055E-13
  1.7055E-13
  1.7055E-13
  1.7055E-13
  6.3957E-13
  6.3957E-13
  6.3957E-13
  6.3957E-13
  6.3957E-13
  6.3957E-13
  6.3957E-13
  6.3957E-13
  6.3957E-13
  2.3877E-12
  2.3877E-12
  2.3877E-12
  2.3877E-12
  2.3877E-12
  2.3877E-12
  2.3877E-12
  2.3877E-12
  2.3877E-12
  8.9114E-12
  8.9114E-12
  8.9114E-12
  8.9114E-12
  8.9114E-12
  8.9114E-12
  8.9114E-12
  8.9114E-12
  8.9114E-12
  3.3258E-11
  3.3258E-11
  3.3258E-11
  3.3258E-11
  3.3258E-11
  3.3258E-11
  3.3258E-11
  3.3258E-11
  3.3258E-11
  1.2412E-10
  1.2412E-10
  1.2412E-10
  1.2412E-10
  1.2412E-10
  1.2412E-10
  1.2412E-10
  1.2412E-10
  1.2412E-10
  4.6322E-10
  4.6322E-10
  4.6322E-10
  4.6322E-10
  4.6322E-10
  4.6322E-10
  4.6322E-10
  4.6322E-10
  4.6322E-10
  1.7288E-09
  1.7288E-09
  1.7288E-09
  1.7288E-09
  1.7288E-09
  1.7288E-09
  1.7288E-09
  1.7288E-09
  1.7288E-09
  6.4519E-09
  6.4519E-09
  6.4519E-09
  6.4519E-09
  6.4519E-09
  6.4519E-09
  6.4519E-09
  6.4519E-09
  6.4519E-09
  2.4079E-08
  2.4079E-08
  2.4079E-08
  2.4079E-08
  2.4079E-08
  2.4079E-08
  2.4079E-08
  2.4079E-08
  2.4079E-08
  8.9864E-08
  8.9864E-08
  8.9864E-08
  8.9864E-08
  8.9864E-08
  8.9864E-08
  8.9864E-08
  8.9864E-08
  8.9864E-08
  3.3538E-07
  3.3538E-07
  3.3538E-07
  3.3538E-07
  3.3538E-07
  3.3538E-07
  3.3538E-07
  3.3538E-07
  3.3538E-07
  1.2516E-06
  1.2516E-06
  1.2516E-06
  1.2516E-06
  1.2516E-06
  1.2516E-06
  1.2516E-06
  1.2516E-06
  1.2516E-06
  4.6712E-06
  4.6712E-06
  4.6712E-06
  4.6712E-06
  4.6712E-06
  4.6712E-06
  4.6712E-06
  4.6712E-06
  4.6712E-06
  1.7433E-05
  1.7433E-05
  1.7433E-05
  1.7433E-05
  1.7433E-05
  1.7433E-05
  1.7433E-05
  1.7433E-05
  1.7433E-05
  6.5061E-05
  6.5061E-05
  6.5061E-05
  6.5061E-05
  6.5061E-05
  6.5061E-05
  6.5061E-05
  6.5061E-05
  6.5061E-05
  2.4281E-04
  2.4281E-04
  2.4281E-04
  2.4281E-04
  2.4281E-04
  2.4281E-04
  2.4281E-04
  2.4281E-04
  2.4281E-04
  9.0619E-04
  9.0619E-04
  9.0619E-04
  9.0619E-04
  9.0619E-04
  9.0619E-04
  9.0619E-04
  9.0619E-04
  9.0619E-04
  1.4294E-03
  1.4294E-03
  1.4294E-03
  1.4294E-03
  1.4294E-03
  1.4294E-03
  1.4294E-03
  1.4294E-03
  1.4294E-03
   1.0000E-03
  1.7546E-14
  1.7546E-14
  1.7546E-14
  1.7546E-14
  1.7546E-14
  1.7546E-14
  1.7546E-14
  1.7546E-14
  1.7546E-14
  5.2639E-14
  5.2639E-14
  5.2639E-14
  5.2639E-14
  5.2639E-14
  5.2639E-14
  5.2639E-14
  5.2639E-14
  5.2639E-14
  2.1056E-13
  2.1056E-13
  2.1056E-13
  2.1056E-13
  2.1056E-13
  2.1056E-13
  2.1056E-13
  2.1056E-13
  2.1056E-13
  7.8959E-13
  7.8959E-13
  7.8959E-13
  7.8959E-13
  7.8959E-13
  7.8959E-13
  7.8959E-13
  7.8959E-13
  7.8959E-13
  2.9478E-12
  2.9478E-12
  2.9478E-12
  2.9478E-12
  2.9478E-12
  2.9478E-12
  2.9478E-12
  2.9478E-12
  2.9478E-12
  1.1002E-11
  1.1002E-11
  1.1002E-11
  1.1002E-11
  1.1002E-11
  1.1002E-11
  1.1002E-11
  1.1002E-11
  1.1002E-11
  4.1059E-11
  4.1059E-11
  4.1059E-11
  4.1059E-11
  4.1059E-11
  4.1059E-11
  4.1059E-11
  4.1059E-11
  4.1059E-11
  1.5323E-10
  1.5323E-10
  1.5323E-10
  1.5323E-10
  1.5323E-10
  1.5323E-10
  1.5323E-10
  1.5323E-10
  1.5323E-10
  5.7188E-10
  5.7188E-10
  5.7188E-10
  5.7188E-10
  5.7188E-10
  5.7188E-10
  5.7188E-10
  5.7188E-10
  5.7188E-10
  2.1343E-09
  2.1343E-09
  2.1343E-09
  2.1343E-09
  2.1343E-09
  2.1343E-09
  2.1343E-09
  2.1343E-09
  2.1343E-09
  7.9653E-09
  7.9653E-09
  7.9653E-09
  7.9653E-09
  7.9653E-09
  7.9653E-09
  7.9653E-09
  7.9653E-09
  7.9653E-09
  2.9727E-08
  2.9727E-08
  2.9727E-08
  2.9727E-08
  2.9727E-08
  2.9727E-08
  2.9727E-08
  2.9727E-08
  2.9727E-08
  1.1094E-07
  1.1094E-07
  1.1094E-07
  1.1094E-07
  1.1094E-07
  1.1094E-07
  1.1094E-07
  1.1094E-07
  1.1094E-07
  4.1404E-07
  4.1404E-07
  4.1404E-07
  4.1404E-07
  4.1404E-07
  4.1404E-07
  4.1404E-07
  4.1404E-07
  4.1404E-07
  1.5452E-06
  1.5452E-06
  1.5452E-06
  1.5452E-06
  1.5452E-06
  1.5452E-06
  1.5452E-06
  1.5452E-06
  1.5452E-06
  5.7669E-06
  5.7669E-06
  5.7669E-06
  5.7669E-06
  5.7669E-06
  5.7669E-06
  5.7669E-06
  5.7669E-06
  5.7669E-06
  2.1522E-05
  2.1522E-05
  2.1522E-05
  2.1522E-05
  2.1522E-05
  2.1522E-05
  2.1522E-05
  2.1522E-05
  2.1522E-05
  8.0323E-05
  8.0323E-05
  8.0323E-05
  8.0323E-05
  8.0323E-05
  8.0323E-05
  8.0323E-05
  8.0323E-05
  8.0323E-05
  2.9977E-04
  2.9977E-04
  2.9977E-04
  2.9977E-04
  2.9977E-04
  2.9977E-04
  2.9977E-04
  2.9977E-04
  2.9977E-04
  1.1188E-03
  1.1188E-03
  1.1188E-03
  1.1188E-03
  1.1188E-03
  1.1188E-03
  1.1188E-03
  1.1188E-03
  1.1188E-03
  1.7647E-03
  1.7647E-03
  1.7647E-03
  1.7647E-03
  1.7647E-03
  1.7647E-03
  1.7647E-03
  1.7647E-03
  1.7647E-03
   1.1000E-03
  2.1231E-14
  2.1231E-14
  2.1231E-14
  2.1231E-14
  2.1231E-14
  2.1231E-14
  2.1231E-14
  2.1231E-14
  2.1231E-14
  6.3693E-14
  6.3693E-14
  6.3693E-14
  6.3693E-14
  6.3693E-14
  6.3693E-14
  6.3693E-14
  6.3693E-14
  6.3693E-14
  2.5477E-13
  2.5477E-13
  2.5477E-13
  2.5477E-13
  2.5477E-13
  2.5477E-13
  2.5477E-13
  2.5477E-13
  2.5477E-13
  9.5540E-13
  9.5540E-13
  9.5540E-13
  9.5540E-13
  9.5540E-13
  9.5540E-13
  9.5540E-13
  9.5540E-13
  9.5540E-13
  3.5668E-12
  3.5668E-12
  3.5668E-12
  3.5668E-12
  3.5668E-12
  3.5668E-12
  3.5668E-12
  3.5668E-12
  3.5668E-12
  1.3312E-11
  1.3312E-11
  1.3312E-11
  1.3312E-11
  1.3312E-11
  1.3312E-11
  1.3312E-11
  1.3312E-11
  1.3312E-11
  4.9681E-11
  4.9681E-11
  4.9681E-11
  4.9681E-11
  4.9681E-11
  4.9681E-11
  4.9681E-11
  4.9681E-11
  4.9681E-11
  1.8541E-10
  1.8541E-10
  1.8541E-10
  1.8541E-10
  1.8541E-10
  1.8541E-10
  1.8541E-10
  1.8541E-10
  1.8541E-10
  6.9197E-10
  6.9197E-10
  6.9197E-10
  6.9197E-10
  6.9197E-10
  6.9197E-10
  6.9197E-10
  6.9197E-10
  6.9197E-10
  2.5825E-09
  2.5825E-09
  2.5825E-09
  2.5825E-09
  2.5825E-09
  2.5825E-09
  2.5825E-09
  2.5825E-09
  2.5825E-09
  9.6380E-09
  9.6380E-09
  9.6380E-09
  9.6380E-09
  9.6380E-09
  9.6380E-09
  9.6380E-09
  9.6380E-09
  9.6380E-09
  3.5969E-08
  3.5969E-08
  3.5969E-08
  3.5969E-08
  3.5969E-08
  3.5969E-08
  3.5969E-08
  3.5969E-08
  3.5969E-08
  1.3424E-07
  1.3424E-07
  1.3424E-07
  1.3424E-07
  1.3424E-07
  1.3424E-07
  1.3424E-07
  1.3424E-07
  1.3424E-07
  5.0099E-07
  5.0099E-07
  5.0099E-07
  5.0099E-07
  5.0099E-07
  5.0099E-07
  5.0099E-07
  5.0099E-07
  5.0099E-07
  1.8697E-06
  1.8697E-06
  1.8697E-06
  1.8697E-06
  1.8697E-06
  1.8697E-06
  1.8697E-06
  1.8697E-06
  1.8697E-06
  6.9779E-06
  6.9779E-06
  6.9779E-06
  6.9779E-06
  6.9779E-06
  6.9779E-06
  6.9779E-06
  6.9779E-06
  6.9779E-06
  2.6042E-05
  2.6042E-05
  2.6042E-05
  2.6042E-05
  2.6042E-05
  2.6042E-05
  2.6042E-05
  2.6042E-05
  2.6042E-05
  9.7190E-05
  9.7190E-05
  9.7190E-05
  9.7190E-05
  9.7190E-05
  9.7190E-05
  9.7190E-05
  9.7190E-05
  9.7190E-05
  3.6272E-04
  3.6272E-04
  3.6272E-04
  3.6272E-04
  3.6272E-04
  3.6272E-04
  3.6272E-04
  3.6272E-04
  3.6272E-04
  1.3537E-03
  1.3537E-03
  1.3537E-03
  1.3537E-03
  1.3537E-03
  1.3537E-03
  1.3537E-03
  1.3537E-03
  1.3537E-03
  2.1352E-03
  2.1352E-03
  2.1352E-03
  2.1352E-03
  2.1352E-03
  2.1352E-03
  2.1352E-03
  2.1352E-03
  2.1352E-03
   1.2000E-03
  2.5267E-14
  2.5267E-14
  2.5267E-14
  2.5267E-14
  2.5267E-14
  2.5267E-14
  2.5267E-14
  2.5267E-14
  2.5267E-14
  7.5800E-14
  7.5800E-14
  7.5800E-14
  7.5800E-14
  7.5800E-14
  7.5800E-14
  7.5800E-14
  7.5800E-14
  7.5800E-14
  3.0320E-13
  3.0320E-13
  3.0320E-13
  3.0320E-13
  3.0320E-13
  3.0320E-13
  3.0320E-13
  3.0320E-13
  3.0320E-13
  1.1370E-12
  1.1370E-12
  1.1370E-12
  1.1370E-12
  1.1370E-12
  1.1370E-12
  1.1370E-12
  1.1370E-12
  1.1370E-12
  4.2448E-12
  4.2448E-12
  4.2448E-12
  4.2448E-12
  4.2448E-12
  4.2448E-12
  4.2448E-12
  4.2448E-12
  4.2448E-12
  1.5842E-11
  1.5842E-11
  1.5842E-11
  1.5842E-11
  1.5842E-11
  1.5842E-11
  1.5842E-11
  1.5842E-11
  1.5842E-11
  5.9125E-11
  5.9125E-11
  5.9125E-11
  5.9125E-11
  5.9125E-11
  5.9125E-11
  5.9125E-11
  5.9125E-11
  5.9125E-11
  2.2066E-10
  2.2066E-10
  2.2066E-10
  2.2066E-10
  2.2066E-10
  2.2066E-10
  2.2066E-10
  2.2066E-10
  2.2066E-10
  8.2350E-10
  8.2350E-10
  8.2350E-10
  8.2350E-10
  8.2350E-10
  8.2350E-10
  8.2350E-10
  8.2350E-10
  8.2350E-10
  3.0734E-09
  3.0734E-09
  3.0734E-09
  3.0734E-09
  3.0734E-09
  3.0734E-09
  3.0734E-09
  3.0734E-09
  3.0734E-09
  1.1470E-08
  1.1470E-08
  1.1470E-08
  1.1470E-08
  1.1470E-08
  1.1470E-08
  1.1470E-08
  1.1470E-08
  1.1470E-08
  4.2807E-08
  4.2807E-08
  4.2807E-08
  4.2807E-08
  4.2807E-08
  4.2807E-08
  4.2807E-08
  4.2807E-08
  4.2807E-08
  1.5976E-07
  1.5976E-07
  1.5976E-07
  1.5976E-07
  1.5976E-07
  1.5976E-07
  1.5976E-07
  1.5976E-07
  1.5976E-07
  5.9622E-07
  5.9622E-07
  5.9622E-07
  5.9622E-07
  5.9622E-07
  5.9622E-07
  5.9622E-07
  5.9622E-07
  5.9622E-07
  2.2251E-06
  2.2251E-06
  2.2251E-06
  2.2251E-06
  2.2251E-06
  2.2251E-06
  2.2251E-06
  2.2251E-06
  2.2251E-06
  8.3043E-06
  8.3043E-06
  8.3043E-06
  8.3043E-06
  8.3043E-06
  8.3043E-06
  8.3043E-06
  8.3043E-06
  8.3043E-06
  3.0992E-05
  3.0992E-05
  3.0992E-05
  3.0992E-05
  3.0992E-05
  3.0992E-05
  3.0992E-05
  3.0992E-05
  3.0992E-05
  1.1566E-04
  1.1566E-04
  1.1566E-04
  1.1566E-04
  1.1566E-04
  1.1566E-04
  1.1566E-04
  1.1566E-04
  1.1566E-04
  4.3167E-04
  4.3167E-04
  4.3167E-04
  4.3167E-04
  4.3167E-04
  4.3167E-04
  4.3167E-04
  4.3167E-04
  4.3167E-04
  1.6110E-03
  1.6110E-03
  1.6110E-03
  1.6110E-03
  1.6110E-03
  1.6110E-03
  1.6110E-03
  1.6110E-03
  1.6110E-03
  2.5411E-03
  2.5411E-03
  2.5411E-03
  2.5411E-03
  2.5411E-03
  2.5411E-03
  2.5411E-03
  2.5411E-03
  2.5411E-03
   1.3000E-03
  2.9653E-14
  2.9653E-14
  2.9653E-14
  2.9653E-14
  2.9653E-14
  2.9653E-14
  2.9653E-14
  2.9653E-14
  2.9653E-14
  8.8959E-14
  8.8959E-14
  8.8959E-14
  8.8959E-14
  8.8959E-14
  8.8959E-14
  8.8959E-14
  8.8959E-14
  8.8959E-14
  3.5584E-13
  3.5584E-13
  3.5584E-13
  3.5584E-13
  3.5584E-13
  3.5584E-13
  3.5584E-13
  3.5584E-13
  3.5584E-13
  1.3344E-12
  1.3344E-12
  1.3344E-12
  1.3344E-12
  1.3344E-12
  1.3344E-12
  1.3344E-12
  1.3344E-12
  1.3344E-12
  4.9817E-12
  4.9817E-12
  4.9817E-12
  4.9817E-12
  4.9817E-12
  4.9817E-12
  4.9817E-12
  4.9817E-12
  4.9817E-12
  1.8593E-11
  1.8593E-11
  1.8593E-11
  1.8593E-11
  1.8593E-11
  1.8593E-11
  1.8593E-11
  1.8593E-11
  1.8593E-11
  6.9389E-11
  6.9389E-11
  6.9389E-11
  6.9389E-11
  6.9389E-11
  6.9389E-11
  6.9389E-11
  6.9389E-11
  6.9389E-11
  2.5896E-10
  2.5896E-10
  2.5896E-10
  2.5896E-10
  2.5896E-10
  2.5896E-10
  2.5896E-10
  2.5896E-10
  2.5896E-10
  9.6647E-10
  9.6647E-10
  9.6647E-10
  9.6647E-10
  9.6647E-10
  9.6647E-10
  9.6647E-10
  9.6647E-10
  9.6647E-10
  3.6069E-09
  3.6069E-09
  3.6069E-09
  3.6069E-09
  3.6069E-09
  3.6069E-09
  3.6069E-09
  3.6069E-09
  3.6069E-09
  1.3461E-08
  1.3461E-08
  1.3461E-08
  1.3461E-08
  1.3461E-08
  1.3461E-08
  1.3461E-08
  1.3461E-08
  1.3461E-08
  5.0238E-08
  5.0238E-08
  5.0238E-08
  5.0238E-08
  5.0238E-08
  5.0238E-08
  5.0238E-08
  5.0238E-08
  5.0238E-08
  1.8749E-07
  1.8749E-07
  1.8749E-07
  1.8749E-07
  1.8749E-07
  1.8749E-07
  1.8749E-07
  1.8749E-07
  1.8749E-07
  6.9973E-07
  6.9973E-07
  6.9973E-07
  6.9973E-07
  6.9973E-07
  6.9973E-07
  6.9973E-07
  6.9973E-07
  6.9973E-07
  2.6114E-06
  2.6114E-06
  2.6114E-06
  2.6114E-06
  2.6114E-06
  2.6114E-06
  2.6114E-06
  2.6114E-06
  2.6114E-06
  9.7460E-06
  9.7460E-06
  9.7460E-06
  9.7460E-06
  9.7460E-06
  9.7460E-06
  9.7460E-06
  9.7460E-06
  9.7460E-06
  3.6373E-05
  3.6373E-05
  3.6373E-05
  3.6373E-05
  3.6373E-05
  3.6373E-05
  3.6373E-05
  3.6373E-05
  3.6373E-05
  1.3575E-04
  1.3575E-04
  1.3575E-04
  1.3575E-04
  1.3575E-04
  1.3575E-04
  1.3575E-04
  1.3575E-04
  1.3575E-04
  5.0661E-04
  5.0661E-04
  5.0661E-04
  5.0661E-04
  5.0661E-04
  5.0661E-04
  5.0661E-04
  5.0661E-04
  5.0661E-04
  1.8907E-03
  1.8907E-03
  1.8907E-03
  1.8907E-03
  1.8907E-03
  1.8907E-03
  1.8907E-03
  1.8907E-03
  1.8907E-03
  2.9823E-03
  2.9823E-03
  2.9823E-03
  2.9823E-03
  2.9823E-03
  2.9823E-03
  2.9823E-03
  2.9823E-03
  2.9823E-03
   1.4000E-03
  3.4390E-14
  3.4390E-14
  3.4390E-14
  3.4390E-14
  3.4390E-14
  3.4390E-14
  3.4390E-14
  3.4390E-14
  3.4390E-14
  1.0317E-13
  1.0317E-13
  1.0317E-13
  1.0317E-13
  1.0317E-13
  1.0317E-13
  1.0317E-13
  1.0317E-13
  1.0317E-13
  4.1268E-13
  4.1268E-13
  4.1268E-13
  4.1268E-13
  4.1268E-13
  4.1268E-13
  4.1268E-13
  4.1268E-13
  4.1268E-13
  1.5476E-12
  1.5476E-12
  1.5476E-12
  1.5476E-12
  1.5476E-12
  1.5476E-12
  1.5476E-12
  1.5476E-12
  1.5476E-12
  5.7776E-12
  5.7776E-12
  5.7776E-12
  5.7776E-12
  5.7776E-12
  5.7776E-12
  5.7776E-12
  5.7776E-12
  5.7776E-12
  2.1563E-11
  2.1563E-11
  2.1563E-11
  2.1563E-11
  2.1563E-11
  2.1563E-11
  2.1563E-11
  2.1563E-11
  2.1563E-11
  8.0474E-11
  8.0474E-11
  8.0474E-11
  8.0474E-11
  8.0474E-11
  8.0474E-11
  8.0474E-11
  8.0474E-11
  8.0474E-11
  3.0033E-10
  3.0033E-10
  3.0033E-10
  3.0033E-10
  3.0033E-10
  3.0033E-10
  3.0033E-10
  3.0033E-10
  3.0033E-10
  1.1209E-09
  1.1209E-09
  1.1209E-09
  1.1209E-09
  1.1209E-09
  1.1209E-09
  1.1209E-09
  1.1209E-09
  1.1209E-09
  4.1831E-09
  4.1831E-09
  4.1831E-09
  4.1831E-09
  4.1831E-09
  4.1831E-09
  4.1831E-09
  4.1831E-09
  4.1831E-09
  1.5612E-08
  1.5612E-08
  1.5612E-08
  1.5612E-08
  1.5612E-08
  1.5612E-08
  1.5612E-08
  1.5612E-08
  1.5612E-08
  5.8264E-08
  5.8264E-08
  5.8264E-08
  5.8264E-08
  5.8264E-08
  5.8264E-08
  5.8264E-08
  5.8264E-08
  5.8264E-08
  2.1744E-07
  2.1744E-07
  2.1744E-07
  2.1744E-07
  2.1744E-07
  2.1744E-07
  2.1744E-07
  2.1744E-07
  2.1744E-07
  8.1152E-07
  8.1152E-07
  8.1152E-07
  8.1152E-07
  8.1152E-07
  8.1152E-07
  8.1152E-07
  8.1152E-07
  8.1152E-07
  3.0286E-06
  3.0286E-06
  3.0286E-06
  3.0286E-06
  3.0286E-06
  3.0286E-06
  3.0286E-06
  3.0286E-06
  3.0286E-06
  1.1303E-05
  1.1303E-05
  1.1303E-05
  1.1303E-05
  1.1303E-05
  1.1303E-05
  1.1303E-05
  1.1303E-05
  1.1303E-05
  4.2184E-05
  4.2184E-05
  4.2184E-05
  4.2184E-05
  4.2184E-05
  4.2184E-05
  4.2184E-05
  4.2184E-05
  4.2184E-05
  1.5743E-04
  1.5743E-04
  1.5743E-04
  1.5743E-04
  1.5743E-04
  1.5743E-04
  1.5743E-04
  1.5743E-04
  1.5743E-04
  5.8755E-04
  5.8755E-04
  5.8755E-04
  5.8755E-04
  5.8755E-04
  5.8755E-04
  5.8755E-04
  5.8755E-04
  5.8755E-04
  2.1928E-03
  2.1928E-03
  2.1928E-03
  2.1928E-03
  2.1928E-03
  2.1928E-03
  2.1928E-03
  2.1928E-03
  2.1928E-03
  3.4587E-03
  3.4587E-03
  3.4587E-03
  3.4587E-03
  3.4587E-03
  3.4587E-03
  3.4587E-03
  3.4587E-03
  3.4587E-03
   1.5000E-03
  3.9478E-14
  3.9478E-14
  3.9478E-14
  3.9478E-14
  3.9478E-14
  3.9478E-14
  3.9478E-14
  3.9478E-14
  3.9478E-14
  1.1843E-13
  1.1843E-13
  1.1843E-13
  1.1843E-13
  1.1843E-13
  1.1843E-13
  1.1843E-13
  1.1843E-13
  1.1843E-13
  4.7374E-13
  4.7374E-13
  4.7374E-13
  4.7374E-13
  4.7374E-13
  4.7374E-13
  4.7374E-13
  4.7374E-13
  4.7374E-13
  1.7765E-12
  1.7765E-12
  1.7765E-12
  1.7765E-12
  1.7765E-12
  1.7765E-12
  1.7765E-12
  1.7765E-12
  1.7765E-12
  6.6324E-12
  6.6324E-12
  6.6324E-12
  6.6324E-12
  6.6324E-12
  6.6324E-12
  6.6324E-12
  6.6324E-12
  6.6324E-12
  2.4753E-11
  2.4753E-11
  2.4753E-11
  2.4753E-11
  2.4753E-11
  2.4753E-11
  2.4753E-11
  2.4753E-11
  2.4753E-11
  9.2381E-11
  9.2381E-11
  9.2381E-11
  9.2381E-11
  9.2381E-11
  9.2381E-11
  9.2381E-11
  9.2381E-11
  9.2381E-11
  3.4477E-10
  3.4477E-10
  3.4477E-10
  3.4477E-10
  3.4477E-10
  3.4477E-10
  3.4477E-10
  3.4477E-10
  3.4477E-10
  1.2867E-09
  1.2867E-09
  1.2867E-09
  1.2867E-09
  1.2867E-09
  1.2867E-09
  1.2867E-09
  1.2867E-09
  1.2867E-09
  4.8021E-09
  4.8021E-09
  4.8021E-09
  4.8021E-09
  4.8021E-09
  4.8021E-09
  4.8021E-09
  4.8021E-09
  4.8021E-09
  1.7922E-08
  1.7922E-08
  1.7922E-08
  1.7922E-08
  1.7922E-08
  1.7922E-08
  1.7922E-08
  1.7922E-08
  1.7922E-08
  6.6885E-08
  6.6885E-08
  6.6885E-08
  6.6885E-08
  6.6885E-08
  6.6885E-08
  6.6885E-08
  6.6885E-08
  6.6885E-08
  2.4962E-07
  2.4962E-07
  2.4962E-07
  2.4962E-07
  2.4962E-07
  2.4962E-07
  2.4962E-07
  2.4962E-07
  2.4962E-07
  9.3159E-07
  9.3159E-07
  9.3159E-07
  9.3159E-07
  9.3159E-07
  9.3159E-07
  9.3159E-07
  9.3159E-07
  9.3159E-07
  3.4767E-06
  3.4767E-06
  3.4767E-06
  3.4767E-06
  3.4767E-06
  3.4767E-06
  3.4767E-06
  3.4767E-06
  3.4767E-06
  1.2975E-05
  1.2975E-05
  1.2975E-05
  1.2975E-05
  1.2975E-05
  1.2975E-05
  1.2975E-05
  1.2975E-05
  1.2975E-05
  4.8425E-05
  4.8425E-05
  4.8425E-05
  4.8425E-05
  4.8425E-05
  4.8425E-05
  4.8425E-05
  4.8425E-05
  4.8425E-05
  1.8073E-04
  1.8073E-04
  1.8073E-04
  1.8073E-04
  1.8073E-04
  1.8073E-04
  1.8073E-04
  1.8073E-04
  1.8073E-04
  6.7448E-04
  6.7448E-04
  6.7448E-04
  6.7448E-04
  6.7448E-04
  6.7448E-04
  6.7448E-04
  6.7448E-04
  6.7448E-04
  2.5172E-03
  2.5172E-03
  2.5172E-03
  2.5172E-03
  2.5172E-03
  2.5172E-03
  2.5172E-03
  2.5172E-03
  2.5172E-03
  3.9705E-03
  3.9705E-03
  3.9705E-03
  3.9705E-03
  3.9705E-03
  3.9705E-03
  3.9705E-03
  3.9705E-03
  3.9705E-03
   1.6000E-03
  4.4917E-14
  4.4917E-14
  4.4917E-14
  4.4917E-14
  4.4917E-14
  4.4917E-14
  4.4917E-14
  4.4917E-14
  4.4917E-14
  1.3475E-13
  1.3475E-13
  1.3475E-13
  1.3475E-13
  1.3475E-13
  1.3475E-13
  1.3475E-13
  1.3475E-13
  1.3475E-13
  5.3901E-13
  5.3901E-13
  5.3901E-13
  5.3901E-13
  5.3901E-13
  5.3901E-13
  5.3901E-13
  5.3901E-13
  5.3901E-13
  2.0213E-12
  2.0213E-12
  2.0213E-12
  2.0213E-12
  2.0213E-12
  2.0213E-12
  2.0213E-12
  2.0213E-12
  2.0213E-12
  7.5462E-12
  7.5462E-12
  7.5462E-12
  7.5462E-12
  7.5462E-12
  7.5462E-12
  7.5462E-12
  7.5462E-12
  7.5462E-12
  2.8163E-11
  2.8163E-11
  2.8163E-11
  2.8163E-11
  2.8163E-11
  2.8163E-11
  2.8163E-11
  2.8163E-11
  2.8163E-11
  1.0511E-10
  1.0511E-10
  1.0511E-10
  1.0511E-10
  1.0511E-10
  1.0511E-10
  1.0511E-10
  1.0511E-10
  1.0511E-10
  3.9227E-10
  3.9227E-10
  3.9227E-10
  3.9227E-10
  3.9227E-10
  3.9227E-10
  3.9227E-10
  3.9227E-10
  3.9227E-10
  1.4640E-09
  1.4640E-09
  1.4640E-09
  1.4640E-09
  1.4640E-09
  1.4640E-09
  1.4640E-09
  1.4640E-09
  1.4640E-09
  5.4637E-09
  5.4637E-09
  5.4637E-09
  5.4637E-09
  5.4637E-09
  5.4637E-09
  5.4637E-09
  5.4637E-09
  5.4637E-09
  2.0391E-08
  2.0391E-08
  2.0391E-08
  2.0391E-08
  2.0391E-08
  2.0391E-08
  2.0391E-08
  2.0391E-08
  2.0391E-08
  7.6099E-08
  7.6099E-08
  7.6099E-08
  7.6099E-08
  7.6099E-08
  7.6099E-08
  7.6099E-08
  7.6099E-08
  7.6099E-08
  2.8401E-07
  2.8401E-07
  2.8401E-07
  2.8401E-07
  2.8401E-07
  2.8401E-07
  2.8401E-07
  2.8401E-07
  2.8401E-07
  1.0599E-06
  1.0599E-06
  1.0599E-06
  1.0599E-06
  1.0599E-06
  1.0599E-06
  1.0599E-06
  1.0599E-06
  1.0599E-06
  3.9557E-06
  3.9557E-06
  3.9557E-06
  3.9557E-06
  3.9557E-06
  3.9557E-06
  3.9557E-06
  3.9557E-06
  3.9557E-06
  1.4763E-05
  1.4763E-05
  1.4763E-05
  1.4763E-05
  1.4763E-05
  1.4763E-05
  1.4763E-05
  1.4763E-05
  1.4763E-05
  5.5097E-05
  5.5097E-05
  5.5097E-05
  5.5097E-05
  5.5097E-05
  5.5097E-05
  5.5097E-05
  5.5097E-05
  5.5097E-05
  2.0562E-04
  2.0562E-04
  2.0562E-04
  2.0562E-04
  2.0562E-04
  2.0562E-04
  2.0562E-04
  2.0562E-04
  2.0562E-04
  7.6741E-04
  7.6741E-04
  7.6741E-04
  7.6741E-04
  7.6741E-04
  7.6741E-04
  7.6741E-04
  7.6741E-04
  7.6741E-04
  2.8640E-03
  2.8640E-03
  2.8640E-03
  2.8640E-03
  2.8640E-03
  2.8640E-03
  2.8640E-03
  2.8640E-03
  2.8640E-03
  4.5175E-03
  4.5175E-03
  4.5175E-03
  4.5175E-03
  4.5175E-03
  4.5175E-03
  4.5175E-03
  4.5175E-03
  4.5175E-03
   1.7000E-03
  5.0707E-14
  5.0707E-14
  5.0707E-14
  5.0707E-14
  5.0707E-14
  5.0707E-14
  5.0707E-14
  5.0707E-14
  5.0707E-14
  1.5212E-13
  1.5212E-13
  1.5212E-13
  1.5212E-13
  1.5212E-13
  1.5212E-13
  1.5212E-13
  1.5212E-13
  1.5212E-13
  6.0848E-13
  6.0848E-13
  6.0848E-13
  6.0848E-13
  6.0848E-13
  6.0848E-13
  6.0848E-13
  6.0848E-13
  6.0848E-13
  2.2818E-12
  2.2818E-12
  2.2818E-12
  2.2818E-12
  2.2818E-12
  2.2818E-12
  2.2818E-12
  2.2818E-12
  2.2818E-12
  8.5189E-12
  8.5189E-12
  8.5189E-12
  8.5189E-12
  8.5189E-12
  8.5189E-12
  8.5189E-12
  8.5189E-12
  8.5189E-12
  3.1794E-11
  3.1794E-11
  3.1794E-11
  3.1794E-11
  3.1794E-11
  3.1794E-11
  3.1794E-11
  3.1794E-11
  3.1794E-11
  1.1866E-10
  1.1866E-10
  1.1866E-10
  1.1866E-10
  1.1866E-10
  1.1866E-10
  1.1866E-10
  1.1866E-10
  1.1866E-10
  4.4283E-10
  4.4283E-10
  4.4283E-10
  4.4283E-10
  4.4283E-10
  4.4283E-10
  4.4283E-10
  4.4283E-10
  4.4283E-10
  1.6527E-09
  1.6527E-09
  1.6527E-09
  1.6527E-09
  1.6527E-09
  1.6527E-09
  1.6527E-09
  1.6527E-09
  1.6527E-09
  6.1679E-09
  6.1679E-09
  6.1679E-09
  6.1679E-09
  6.1679E-09
  6.1679E-09
  6.1679E-09
  6.1679E-09
  6.1679E-09
  2.3019E-08
  2.3019E-08
  2.3019E-08
  2.3019E-08
  2.3019E-08
  2.3019E-08
  2.3019E-08
  2.3019E-08
  2.3019E-08
  8.5909E-08
  8.5909E-08
  8.5909E-08
  8.5909E-08
  8.5909E-08
  8.5909E-08
  8.5909E-08
  8.5909E-08
  8.5909E-08
  3.2062E-07
  3.2062E-07
  3.2062E-07
  3.2062E-07
  3.2062E-07
  3.2062E-07
  3.2062E-07
  3.2062E-07
  3.2062E-07
  1.1966E-06
  1.1966E-06
  1.1966E-06
  1.1966E-06
  1.1966E-06
  1.1966E-06
  1.1966E-06
  1.1966E-06
  1.1966E-06
  4.4657E-06
  4.4657E-06
  4.4657E-06
  4.4657E-06
  4.4657E-06
  4.4657E-06
  4.4657E-06
  4.4657E-06
  4.4657E-06
  1.6666E-05
  1.6666E-05
  1.6666E-05
  1.6666E-05
  1.6666E-05
  1.6666E-05
  1.6666E-05
  1.6666E-05
  1.6666E-05
  6.2199E-05
  6.2199E-05
  6.2199E-05
  6.2199E-05
  6.2199E-05
  6.2199E-05
  6.2199E-05
  6.2199E-05
  6.2199E-05
  2.3213E-04
  2.3213E-04
  2.3213E-04
  2.3213E-04
  2.3213E-04
  2.3213E-04
  2.3213E-04
  2.3213E-04
  2.3213E-04
  8.6633E-04
  8.6633E-04
  8.6633E-04
  8.6633E-04
  8.6633E-04
  8.6633E-04
  8.6633E-04
  8.6633E-04
  8.6633E-04
  3.2332E-03
  3.2332E-03
  3.2332E-03
  3.2332E-03
  3.2332E-03
  3.2332E-03
  3.2332E-03
  3.2332E-03
  3.2332E-03
  5.0999E-03
  5.0999E-03
  5.0999E-03
  5.0999E-03
  5.0999E-03
  5.0999E-03
  5.0999E-03
  5.0999E-03
  5.0999E-03
   1.8000E-03
  5.6847E-14
  5.6847E-14
  5.6847E-14
  5.6847E-14
  5.6847E-14
  5.6847E-14
  5.6847E-14
  5.6847E-14
  5.6847E-14
  1.7054E-13
  1.7054E-13
  1.7054E-13
  1.7054E-13
  1.7054E-13
  1.7054E-13
  1.7054E-13
  1.7054E-13
  1.7054E-13
  6.8217E-13
  6.8217E-13
  6.8217E-13
  6.8217E-13
  6.8217E-13
  6.8217E-13
  6.8217E-13
  6.8217E-13
  6.8217E-13
  2.5582E-12
  2.5582E-12
  2.5582E-12
  2.5582E-12
  2.5582E-12
  2.5582E-12
  2.5582E-12
  2.5582E-12
  2.5582E-12
  9.5505E-12
  9.5505E-12
  9.5505E-12
  9.5505E-12
  9.5505E-12
  9.5505E-12
  9.5505E-12
  9.5505E-12
  9.5505E-12
  3.5644E-11
  3.5644E-11
  3.5644E-11
  3.5644E-11
  3.5644E-11
  3.5644E-11
  3.5644E-11
  3.5644E-11
  3.5644E-11
  1.3303E-10
  1.3303E-10
  1.3303E-10
  1.3303E-10
  1.3303E-10
  1.3303E-10
  1.3303E-10
  1.3303E-10
  1.3303E-10
  4.9646E-10
  4.9646E-10
  4.9646E-10
  4.9646E-10
  4.9646E-10
  4.9646E-10
  4.9646E-10
  4.9646E-10
  4.9646E-10
  1.8528E-09
  1.8528E-09
  1.8528E-09
  1.8528E-09
  1.8528E-09
  1.8528E-09
  1.8528E-09
  1.8528E-09
  1.8528E-09
  6.9149E-09
  6.9149E-09
  6.9149E-09
  6.9149E-09
  6.9149E-09
  6.9149E-09
  6.9149E-09
  6.9149E-09
  6.9149E-09
  2.5807E-08
  2.5807E-08
  2.5807E-08
  2.5807E-08
  2.5807E-08
  2.5807E-08
  2.5807E-08
  2.5807E-08
  2.5807E-08
  9.6313E-08
  9.6313E-08
  9.6313E-08
  9.6313E-08
  9.6313E-08
  9.6313E-08
  9.6313E-08
  9.6313E-08
  9.6313E-08
  3.5944E-07
  3.5944E-07
  3.5944E-07
  3.5944E-07
  3.5944E-07
  3.5944E-07
  3.5944E-07
  3.5944E-07
  3.5944E-07
  1.3415E-06
  1.3415E-06
  1.3415E-06
  1.3415E-06
  1.3415E-06
  1.3415E-06
  1.3415E-06
  1.3415E-06
  1.3415E-06
  5.0065E-06
  5.0065E-06
  5.0065E-06
  5.0065E-06
  5.0065E-06
  5.0065E-06
  5.0065E-06
  5.0065E-06
  5.0065E-06
  1.8684E-05
  1.8684E-05
  1.8684E-05
  1.8684E-05
  1.8684E-05
  1.8684E-05
  1.8684E-05
  1.8684E-05
  1.8684E-05
  6.9732E-05
  6.9732E-05
  6.9732E-05
  6.9732E-05
  6.9732E-05
  6.9732E-05
  6.9732E-05
  6.9732E-05
  6.9732E-05
  2.6024E-04
  2.6024E-04
  2.6024E-04
  2.6024E-04
  2.6024E-04
  2.6024E-04
  2.6024E-04
  2.6024E-04
  2.6024E-04
  9.7125E-04
  9.7125E-04
  9.7125E-04
  9.7125E-04
  9.7125E-04
  9.7125E-04
  9.7125E-04
  9.7125E-04
  9.7125E-04
  3.6248E-03
  3.6248E-03
  3.6248E-03
  3.6248E-03
  3.6248E-03
  3.6248E-03
  3.6248E-03
  3.6248E-03
  3.6248E-03
  5.7175E-03
  5.7175E-03
  5.7175E-03
  5.7175E-03
  5.7175E-03
  5.7175E-03
  5.7175E-03
  5.7175E-03
  5.7175E-03
   1.9000E-03
  6.3338E-14
  6.3338E-14
  6.3338E-14
  6.3338E-14
  6.3338E-14
  6.3338E-14
  6.3338E-14
  6.3338E-14
  6.3338E-14
  1.9002E-13
  1.9002E-13
  1.9002E-13
  1.9002E-13
  1.9002E-13
  1.9002E-13
  1.9002E-13
  1.9002E-13
  1.9002E-13
  7.6007E-13
  7.6007E-13
  7.6007E-13
  7.6007E-13
  7.6007E-13
  7.6007E-13
  7.6007E-13
  7.6007E-13
  7.6007E-13
  2.8503E-12
  2.8503E-12
  2.8503E-12
  2.8503E-12
  2.8503E-12
  2.8503E-12
  2.8503E-12
  2.8503E-12
  2.8503E-12
  1.0641E-11
  1.0641E-11
  1.0641E-11
  1.0641E-11
  1.0641E-11
  1.0641E-11
  1.0641E-11
  1.0641E-11
  1.0641E-11
  3.9714E-11
  3.9714E-11
  3.9714E-11
  3.9714E-11
  3.9714E-11
  3.9714E-11
  3.9714E-11
  3.9714E-11
  3.9714E-11
  1.4822E-10
  1.4822E-10
  1.4822E-10
  1.4822E-10
  1.4822E-10
  1.4822E-10
  1.4822E-10
  1.4822E-10
  1.4822E-10
  5.5315E-10
  5.5315E-10
  5.5315E-10
  5.5315E-10
  5.5315E-10
  5.5315E-10
  5.5315E-10
  5.5315E-10
  5.5315E-10
  2.0644E-09
  2.0644E-09
  2.0644E-09
  2.0644E-09
  2.0644E-09
  2.0644E-09
  2.0644E-09
  2.0644E-09
  2.0644E-09
  7.7045E-09
  7.7045E-09
  7.7045E-09
  7.7045E-09
  7.7045E-09
  7.7045E-09
  7.7045E-09
  7.7045E-09
  7.7045E-09
  2.8754E-08
  2.8754E-08
  2.8754E-08
  2.8754E-08
  2.8754E-08
  2.8754E-08
  2.8754E-08
  2.8754E-08
  2.8754E-08
  1.0731E-07
  1.0731E-07
  1.0731E-07
  1.0731E-07
  1.0731E-07
  1.0731E-07
  1.0731E-07
  1.0731E-07
  1.0731E-07
  4.0049E-07
  4.0049E-07
  4.0049E-07
  4.0049E-07
  4.0049E-07
  4.0049E-07
  4.0049E-07
  4.0049E-07
  4.0049E-07
  1.4947E-06
  1.4947E-06
  1.4947E-06
  1.4947E-06
  1.4947E-06
  1.4947E-06
  1.4947E-06
  1.4947E-06
  1.4947E-06
  5.5782E-06
  5.5782E-06
  5.5782E-06
  5.5782E-06
  5.5782E-06
  5.5782E-06
  5.5782E-06
  5.5782E-06
  5.5782E-06
  2.0818E-05
  2.0818E-05
  2.0818E-05
  2.0818E-05
  2.0818E-05
  2.0818E-05
  2.0818E-05
  2.0818E-05
  2.0818E-05
  7.7695E-05
  7.7695E-05
  7.7695E-05
  7.7695E-05
  7.7695E-05
  7.7695E-05
  7.7695E-05
  7.7695E-05
  7.7695E-05
  2.8996E-04
  2.8996E-04
  2.8996E-04
  2.8996E-04
  2.8996E-04
  2.8996E-04
  2.8996E-04
  2.8996E-04
  2.8996E-04
  1.0822E-03
  1.0822E-03
  1.0822E-03
  1.0822E-03
  1.0822E-03
  1.0822E-03
  1.0822E-03
  1.0822E-03
  1.0822E-03
  4.0387E-03
  4.0387E-03
  4.0387E-03
  4.0387E-03
  4.0387E-03
  4.0387E-03
  4.0387E-03
  4.0387E-03
  4.0387E-03
  6.3704E-03
  6.3704E-03
  6.3704E-03
  6.3704E-03
  6.3704E-03
  6.3704E-03
  6.3704E-03
  6.3704E-03
  6.3704E-03
   2.0000E-03
  7.0180E-14
  7.0180E-14
  7.0180E-14
  7.0180E-14
  7.0180E-14
  7.0180E-14
  7.0180E-14
  7.0180E-14
  7.0180E-14
  2.1054E-13
  2.1054E-13
  2.1054E-13
  2.1054E-13
  2.1054E-13
  2.1054E-13
  2.1054E-13
  2.1054E-13
  2.1054E-13
  8.4217E-13
  8.4217E-13
  8.4217E-13
  8.4217E-13
  8.4217E-13
  8.4217E-13
  8.4217E-13
  8.4217E-13
  8.4217E-13
  3.1582E-12
  3.1582E-12
  3.1582E-12
  3.1582E-12
  3.1582E-12
  3.1582E-12
  3.1582E-12
  3.1582E-12
  3.1582E-12
  1.1791E-11
  1.1791E-11
  1.1791E-11
  1.1791E-11
  1.1791E-11
  1.1791E-11
  1.1791E-11
  1.1791E-11
  1.1791E-11
  4.4004E-11
  4.4004E-11
  4.4004E-11
  4.4004E-11
  4.4004E-11
  4.4004E-11
  4.4004E-11
  4.4004E-11
  4.4004E-11
  1.6423E-10
  1.6423E-10
  1.6423E-10
  1.6423E-10
  1.6423E-10
  1.6423E-10
  1.6423E-10
  1.6423E-10
  1.6423E-10
  6.1291E-10
  6.1291E-10
  6.1291E-10
  6.1291E-10
  6.1291E-10
  6.1291E-10
  6.1291E-10
  6.1291E-10
  6.1291E-10
  2.2874E-09
  2.2874E-09
  2.2874E-09
  2.2874E-09
  2.2874E-09
  2.2874E-09
  2.2874E-09
  2.2874E-09
  2.2874E-09
  8.5368E-09
  8.5368E-09
  8.5368E-09
  8.5368E-09
  8.5368E-09
  8.5368E-09
  8.5368E-09
  8.5368E-09
  8.5368E-09
  3.1860E-08
  3.1860E-08
  3.1860E-08
  3.1860E-08
  3.1860E-08
  3.1860E-08
  3.1860E-08
  3.1860E-08
  3.1860E-08
  1.1890E-07
  1.1890E-07
  1.1890E-07
  1.1890E-07
  1.1890E-07
  1.1890E-07
  1.1890E-07
  1.1890E-07
  1.1890E-07
  4.4376E-07
  4.4376E-07
  4.4376E-07
  4.4376E-07
  4.4376E-07
  4.4376E-07
  4.4376E-07
  4.4376E-07
  4.4376E-07
  1.6561E-06
  1.6561E-06
  1.6561E-06
  1.6561E-06
  1.6561E-06
  1.6561E-06
  1.6561E-06
  1.6561E-06
  1.6561E-06
  6.1808E-06
  6.1808E-06
  6.1808E-06
  6.1808E-06
  6.1808E-06
  6.1808E-06
  6.1808E-06
  6.1808E-06
  6.1808E-06
  2.3067E-05
  2.3067E-05
  2.3067E-05
  2.3067E-05
  2.3067E-05
  2.3067E-05
  2.3067E-05
  2.3067E-05
  2.3067E-05
  8.6088E-05
  8.6088E-05
  8.6088E-05
  8.6088E-05
  8.6088E-05
  8.6088E-05
  8.6088E-05
  8.6088E-05
  8.6088E-05
  3.2129E-04
  3.2129E-04
  3.2129E-04
  3.2129E-04
  3.2129E-04
  3.2129E-04
  3.2129E-04
  3.2129E-04
  3.2129E-04
  1.1991E-03
  1.1991E-03
  1.1991E-03
  1.1991E-03
  1.1991E-03
  1.1991E-03
  1.1991E-03
  1.1991E-03
  1.1991E-03
  4.4750E-03
  4.4750E-03
  4.4750E-03
  4.4750E-03
  4.4750E-03
  4.4750E-03
  4.4750E-03
  4.4750E-03
  4.4750E-03
  7.0587E-03
  7.0587E-03
  7.0587E-03
  7.0587E-03
  7.0587E-03
  7.0587E-03
  7.0587E-03
  7.0587E-03
  7.0587E-03
   2.1000E-03
  7.7372E-14
  7.7372E-14
  7.7372E-14
  7.7372E-14
  7.7372E-14
  7.7372E-14
  7.7372E-14
  7.7372E-14
  7.7372E-14
  2.3212E-13
  2.3212E-13
  2.3212E-13
  2.3212E-13
  2.3212E-13
  2.3212E-13
  2.3212E-13
  2.3212E-13
  2.3212E-13
  9.2848E-13
  9.2848E-13
  9.2848E-13
  9.2848E-13
  9.2848E-13
  9.2848E-13
  9.2848E-13
  9.2848E-13
  9.2848E-13
  3.4818E-12
  3.4818E-12
  3.4818E-12
  3.4818E-12
  3.4818E-12
  3.4818E-12
  3.4818E-12
  3.4818E-12
  3.4818E-12
  1.2999E-11
  1.2999E-11
  1.2999E-11
  1.2999E-11
  1.2999E-11
  1.2999E-11
  1.2999E-11
  1.2999E-11
  1.2999E-11
  4.8514E-11
  4.8514E-11
  4.8514E-11
  4.8514E-11
  4.8514E-11
  4.8514E-11
  4.8514E-11
  4.8514E-11
  4.8514E-11
  1.8106E-10
  1.8106E-10
  1.8106E-10
  1.8106E-10
  1.8106E-10
  1.8106E-10
  1.8106E-10
  1.8106E-10
  1.8106E-10
  6.7572E-10
  6.7572E-10
  6.7572E-10
  6.7572E-10
  6.7572E-10
  6.7572E-10
  6.7572E-10
  6.7572E-10
  6.7572E-10
  2.5219E-09
  2.5219E-09
  2.5219E-09
  2.5219E-09
  2.5219E-09
  2.5219E-09
  2.5219E-09
  2.5219E-09
  2.5219E-09
  9.4117E-09
  9.4117E-09
  9.4117E-09
  9.4117E-09
  9.4117E-09
  9.4117E-09
  9.4117E-09
  9.4117E-09
  9.4117E-09
  3.5125E-08
  3.5125E-08
  3.5125E-08
  3.5125E-08
  3.5125E-08
  3.5125E-08
  3.5125E-08
  3.5125E-08
  3.5125E-08
  1.3109E-07
  1.3109E-07
  1.3109E-07
  1.3109E-07
  1.3109E-07
  1.3109E-07
  1.3109E-07
  1.3109E-07
  1.3109E-07
  4.8924E-07
  4.8924E-07
  4.8924E-07
  4.8924E-07
  4.8924E-07
  4.8924E-07
  4.8924E-07
  4.8924E-07
  4.8924E-07
  1.8259E-06
  1.8259E-06
  1.8259E-06
  1.8259E-06
  1.8259E-06
  1.8259E-06
  1.8259E-06
  1.8259E-06
  1.8259E-06
  6.8143E-06
  6.8143E-06
  6.8143E-06
  6.8143E-06
  6.8143E-06
  6.8143E-06
  6.8143E-06
  6.8143E-06
  6.8143E-06
  2.5431E-05
  2.5431E-05
  2.5431E-05
  2.5431E-05
  2.5431E-05
  2.5431E-05
  2.5431E-05
  2.5431E-05
  2.5431E-05
  9.4912E-05
  9.4912E-05
  9.4912E-05
  9.4912E-05
  9.4912E-05
  9.4912E-05
  9.4912E-05
  9.4912E-05
  9.4912E-05
  3.5422E-04
  3.5422E-04
  3.5422E-04
  3.5422E-04
  3.5422E-04
  3.5422E-04
  3.5422E-04
  3.5422E-04
  3.5422E-04
  1.3220E-03
  1.3220E-03
  1.3220E-03
  1.3220E-03
  1.3220E-03
  1.3220E-03
  1.3220E-03
  1.3220E-03
  1.3220E-03
  4.9337E-03
  4.9337E-03
  4.9337E-03
  4.9337E-03
  4.9337E-03
  4.9337E-03
  4.9337E-03
  4.9337E-03
  4.9337E-03
  7.7822E-03
  7.7822E-03
  7.7822E-03
  7.7822E-03
  7.7822E-03
  7.7822E-03
  7.7822E-03
  7.7822E-03
  7.7822E-03
   2.2000E-03
  8.4916E-14
  8.4916E-14
  8.4916E-14
  8.4916E-14
  8.4916E-14
  8.4916E-14
  8.4916E-14
  8.4916E-14
  8.4916E-14
  2.5475E-13
  2.5475E-13
  2.5475E-13
  2.5475E-13
  2.5475E-13
  2.5475E-13
  2.5475E-13
  2.5475E-13
  2.5475E-13
  1.0190E-12
  1.0190E-12
  1.0190E-12
  1.0190E-12
  1.0190E-12
  1.0190E-12
  1.0190E-12
  1.0190E-12
  1.0190E-12
  3.8213E-12
  3.8213E-12
  3.8213E-12
  3.8213E-12
  3.8213E-12
  3.8213E-12
  3.8213E-12
  3.8213E-12
  3.8213E-12
  1.4266E-11
  1.4266E-11
  1.4266E-11
  1.4266E-11
  1.4266E-11
  1.4266E-11
  1.4266E-11
  1.4266E-11
  1.4266E-11
  5.3244E-11
  5.3244E-11
  5.3244E-11
  5.3244E-11
  5.3244E-11
  5.3244E-11
  5.3244E-11
  5.3244E-11
  5.3244E-11
  1.9871E-10
  1.9871E-10
  1.9871E-10
  1.9871E-10
  1.9871E-10
  1.9871E-10
  1.9871E-10
  1.9871E-10
  1.9871E-10
  7.4161E-10
  7.4161E-10
  7.4161E-10
  7.4161E-10
  7.4161E-10
  7.4161E-10
  7.4161E-10
  7.4161E-10
  7.4161E-10
  2.7677E-09
  2.7677E-09
  2.7677E-09
  2.7677E-09
  2.7677E-09
  2.7677E-09
  2.7677E-09
  2.7677E-09
  2.7677E-09
  1.0329E-08
  1.0329E-08
  1.0329E-08
  1.0329E-08
  1.0329E-08
  1.0329E-08
  1.0329E-08
  1.0329E-08
  1.0329E-08
  3.8550E-08
  3.8550E-08
  3.8550E-08
  3.8550E-08
  3.8550E-08
  3.8550E-08
  3.8550E-08
  3.8550E-08
  3.8550E-08
  1.4387E-07
  1.4387E-07
  1.4387E-07
  1.4387E-07
  1.4387E-07
  1.4387E-07
  1.4387E-07
  1.4387E-07
  1.4387E-07
  5.3694E-07
  5.3694E-07
  5.3694E-07
  5.3694E-07
  5.3694E-07
  5.3694E-07
  5.3694E-07
  5.3694E-07
  5.3694E-07
  2.0039E-06
  2.0039E-06
  2.0039E-06
  2.0039E-06
  2.0039E-06
  2.0039E-06
  2.0039E-06
  2.0039E-06
  2.0039E-06
  7.4787E-06
  7.4787E-06
  7.4787E-06
  7.4787E-06
  7.4787E-06
  7.4787E-06
  7.4787E-06
  7.4787E-06
  7.4787E-06
  2.7911E-05
  2.7911E-05
  2.7911E-05
  2.7911E-05
  2.7911E-05
  2.7911E-05
  2.7911E-05
  2.7911E-05
  2.7911E-05
  1.0417E-04
  1.0417E-04
  1.0417E-04
  1.0417E-04
  1.0417E-04
  1.0417E-04
  1.0417E-04
  1.0417E-04
  1.0417E-04
  3.8876E-04
  3.8876E-04
  3.8876E-04
  3.8876E-04
  3.8876E-04
  3.8876E-04
  3.8876E-04
  3.8876E-04
  3.8876E-04
  1.4509E-03
  1.4509E-03
  1.4509E-03
  1.4509E-03
  1.4509E-03
  1.4509E-03
  1.4509E-03
  1.4509E-03
  1.4509E-03
  5.4147E-03
  5.4147E-03
  5.4147E-03
  5.4147E-03
  5.4147E-03
  5.4147E-03
  5.4147E-03
  5.4147E-03
  5.4147E-03
  8.5410E-03
  8.5410E-03
  8.5410E-03
  8.5410E-03
  8.5410E-03
  8.5410E-03
  8.5410E-03
  8.5410E-03
  8.5410E-03
   2.3000E-03
  9.2810E-14
  9.2810E-14
  9.2810E-14
  9.2810E-14
  9.2810E-14
  9.2810E-14
  9.2810E-14
  9.2810E-14
  9.2810E-14
  2.7843E-13
  2.7843E-13
  2.7843E-13
  2.7843E-13
  2.7843E-13
  2.7843E-13
  2.7843E-13
  2.7843E-13
  2.7843E-13
  1.1137E-12
  1.1137E-12
  1.1137E-12
  1.1137E-12
  1.1137E-12
  1.1137E-12
  1.1137E-12
  1.1137E-12
  1.1137E-12
  4.1765E-12
  4.1765E-12
  4.1765E-12
  4.1765E-12
  4.1765E-12
  4.1765E-12
  4.1765E-12
  4.1765E-12
  4.1765E-12
  1.5593E-11
  1.5593E-11
  1.5593E-11
  1.5593E-11
  1.5593E-11
  1.5593E-11
  1.5593E-11
  1.5593E-11
  1.5593E-11
  5.8194E-11
  5.8194E-11
  5.8194E-11
  5.8194E-11
  5.8194E-11
  5.8194E-11
  5.8194E-11
  5.8194E-11
  5.8194E-11
  2.1718E-10
  2.1718E-10
  2.1718E-10
  2.1718E-10
  2.1718E-10
  2.1718E-10
  2.1718E-10
  2.1718E-10
  2.1718E-10
  8.1055E-10
  8.1055E-10
  8.1055E-10
  8.1055E-10
  8.1055E-10
  8.1055E-10
  8.1055E-10
  8.1055E-10
  8.1055E-10
  3.0250E-09
  3.0250E-09
  3.0250E-09
  3.0250E-09
  3.0250E-09
  3.0250E-09
  3.0250E-09
  3.0250E-09
  3.0250E-09
  1.1290E-08
  1.1290E-08
  1.1290E-08
  1.1290E-08
  1.1290E-08
  1.1290E-08
  1.1290E-08
  1.1290E-08
  1.1290E-08
  4.2134E-08
  4.2134E-08
  4.2134E-08
  4.2134E-08
  4.2134E-08
  4.2134E-08
  4.2134E-08
  4.2134E-08
  4.2134E-08
  1.5725E-07
  1.5725E-07
  1.5725E-07
  1.5725E-07
  1.5725E-07
  1.5725E-07
  1.5725E-07
  1.5725E-07
  1.5725E-07
  5.8686E-07
  5.8686E-07
  5.8686E-07
  5.8686E-07
  5.8686E-07
  5.8686E-07
  5.8686E-07
  5.8686E-07
  5.8686E-07
  2.1902E-06
  2.1902E-06
  2.1902E-06
  2.1902E-06
  2.1902E-06
  2.1902E-06
  2.1902E-06
  2.1902E-06
  2.1902E-06
  8.1740E-06
  8.1740E-06
  8.1740E-06
  8.1740E-06
  8.1740E-06
  8.1740E-06
  8.1740E-06
  8.1740E-06
  8.1740E-06
  3.0506E-05
  3.0506E-05
  3.0506E-05
  3.0506E-05
  3.0506E-05
  3.0506E-05
  3.0506E-05
  3.0506E-05
  3.0506E-05
  1.1385E-04
  1.1385E-04
  1.1385E-04
  1.1385E-04
  1.1385E-04
  1.1385E-04
  1.1385E-04
  1.1385E-04
  1.1385E-04
  4.2490E-04
  4.2490E-04
  4.2490E-04
  4.2490E-04
  4.2490E-04
  4.2490E-04
  4.2490E-04
  4.2490E-04
  4.2490E-04
  1.5858E-03
  1.5858E-03
  1.5858E-03
  1.5858E-03
  1.5858E-03
  1.5858E-03
  1.5858E-03
  1.5858E-03
  1.5858E-03
  5.9182E-03
  5.9182E-03
  5.9182E-03
  5.9182E-03
  5.9182E-03
  5.9182E-03
  5.9182E-03
  5.9182E-03
  5.9182E-03
  9.3351E-03
  9.3351E-03
  9.3351E-03
  9.3351E-03
  9.3351E-03
  9.3351E-03
  9.3351E-03
  9.3351E-03
  9.3351E-03
   2.4000E-03
  1.0105E-13
  1.0105E-13
  1.0105E-13
  1.0105E-13
  1.0105E-13
  1.0105E-13
  1.0105E-13
  1.0105E-13
  1.0105E-13
  3.0317E-13
  3.0317E-13
  3.0317E-13
  3.0317E-13
  3.0317E-13
  3.0317E-13
  3.0317E-13
  3.0317E-13
  3.0317E-13
  1.2127E-12
  1.2127E-12
  1.2127E-12
  1.2127E-12
  1.2127E-12
  1.2127E-12
  1.2127E-12
  1.2127E-12
  1.2127E-12
  4.5476E-12
  4.5476E-12
  4.5476E-12
  4.5476E-12
  4.5476E-12
  4.5476E-12
  4.5476E-12
  4.5476E-12
  4.5476E-12
  1.6978E-11
  1.6978E-11
  1.6978E-11
  1.6978E-11
  1.6978E-11
  1.6978E-11
  1.6978E-11
  1.6978E-11
  1.6978E-11
  6.3364E-11
  6.3364E-11
  6.3364E-11
  6.3364E-11
  6.3364E-11
  6.3364E-11
  6.3364E-11
  6.3364E-11
  6.3364E-11
  2.3648E-10
  2.3648E-10
  2.3648E-10
  2.3648E-10
  2.3648E-10
  2.3648E-10
  2.3648E-10
  2.3648E-10
  2.3648E-10
  8.8256E-10
  8.8256E-10
  8.8256E-10
  8.8256E-10
  8.8256E-10
  8.8256E-10
  8.8256E-10
  8.8256E-10
  8.8256E-10
  3.2938E-09
  3.2938E-09
  3.2938E-09
  3.2938E-09
  3.2938E-09
  3.2938E-09
  3.2938E-09
  3.2938E-09
  3.2938E-09
  1.2293E-08
  1.2293E-08
  1.2293E-08
  1.2293E-08
  1.2293E-08
  1.2293E-08
  1.2293E-08
  1.2293E-08
  1.2293E-08
  4.5877E-08
  4.5877E-08
  4.5877E-08
  4.5877E-08
  4.5877E-08
  4.5877E-08
  4.5877E-08
  4.5877E-08
  4.5877E-08
  1.7122E-07
  1.7122E-07
  1.7122E-07
  1.7122E-07
  1.7122E-07
  1.7122E-07
  1.7122E-07
  1.7122E-07
  1.7122E-07
  6.3900E-07
  6.3900E-07
  6.3900E-07
  6.3900E-07
  6.3900E-07
  6.3900E-07
  6.3900E-07
  6.3900E-07
  6.3900E-07
  2.3848E-06
  2.3848E-06
  2.3848E-06
  2.3848E-06
  2.3848E-06
  2.3848E-06
  2.3848E-06
  2.3848E-06
  2.3848E-06
  8.9002E-06
  8.9002E-06
  8.9002E-06
  8.9002E-06
  8.9002E-06
  8.9002E-06
  8.9002E-06
  8.9002E-06
  8.9002E-06
  3.3216E-05
  3.3216E-05
  3.3216E-05
  3.3216E-05
  3.3216E-05
  3.3216E-05
  3.3216E-05
  3.3216E-05
  3.3216E-05
  1.2397E-04
  1.2397E-04
  1.2397E-04
  1.2397E-04
  1.2397E-04
  1.2397E-04
  1.2397E-04
  1.2397E-04
  1.2397E-04
  4.6265E-04
  4.6265E-04
  4.6265E-04
  4.6265E-04
  4.6265E-04
  4.6265E-04
  4.6265E-04
  4.6265E-04
  4.6265E-04
  1.7266E-03
  1.7266E-03
  1.7266E-03
  1.7266E-03
  1.7266E-03
  1.7266E-03
  1.7266E-03
  1.7266E-03
  1.7266E-03
  6.4440E-03
  6.4440E-03
  6.4440E-03
  6.4440E-03
  6.4440E-03
  6.4440E-03
  6.4440E-03
  6.4440E-03
  6.4440E-03
  1.0164E-02
  1.0164E-02
  1.0164E-02
  1.0164E-02
  1.0164E-02
  1.0164E-02
  1.0164E-02
  1.0164E-02
  1.0164E-02
   2.5000E-03
  1.0965E-13
  1.0965E-13
  1.0965E-13
  1.0965E-13
  1.0965E-13
  1.0965E-13
  1.0965E-13
  1.0965E-13
  1.0965E-13
  3.2895E-13
  3.2895E-13
  3.2895E-13
  3.2895E-13
  3.2895E-13
  3.2895E-13
  3.2895E-13
  3.2895E-13
  3.2895E-13
  1.3158E-12
  1.3158E-12
  1.3158E-12
  1.3158E-12
  1.3158E-12
  1.3158E-12
  1.3158E-12
  1.3158E-12
  1.3158E-12
  4.9344E-12
  4.9344E-12
  4.9344E-12
  4.9344E-12
  4.9344E-12
  4.9344E-12
  4.9344E-12
  4.9344E-12
  4.9344E-12
  1.8422E-11
  1.8422E-11
  1.8422E-11
  1.8422E-11
  1.8422E-11
  1.8422E-11
  1.8422E-11
  1.8422E-11
  1.8422E-11
  6.8753E-11
  6.8753E-11
  6.8753E-11
  6.8753E-11
  6.8753E-11
  6.8753E-11
  6.8753E-11
  6.8753E-11
  6.8753E-11
  2.5659E-10
  2.5659E-10
  2.5659E-10
  2.5659E-10
  2.5659E-10
  2.5659E-10
  2.5659E-10
  2.5659E-10
  2.5659E-10
  9.5763E-10
  9.5763E-10
  9.5763E-10
  9.5763E-10
  9.5763E-10
  9.5763E-10
  9.5763E-10
  9.5763E-10
  9.5763E-10
  3.5740E-09
  3.5740E-09
  3.5740E-09
  3.5740E-09
  3.5740E-09
  3.5740E-09
  3.5740E-09
  3.5740E-09
  3.5740E-09
  1.3338E-08
  1.3338E-08
  1.3338E-08
  1.3338E-08
  1.3338E-08
  1.3338E-08
  1.3338E-08
  1.3338E-08
  1.3338E-08
  4.9780E-08
  4.9780E-08
  4.9780E-08
  4.9780E-08
  4.9780E-08
  4.9780E-08
  4.9780E-08
  4.9780E-08
  4.9780E-08
  1.8578E-07
  1.8578E-07
  1.8578E-07
  1.8578E-07
  1.8578E-07
  1.8578E-07
  1.8578E-07
  1.8578E-07
  1.8578E-07
  6.9335E-07
  6.9335E-07
  6.9335E-07
  6.9335E-07
  6.9335E-07
  6.9335E-07
  6.9335E-07
  6.9335E-07
  6.9335E-07
  2.5876E-06
  2.5876E-06
  2.5876E-06
  2.5876E-06
  2.5876E-06
  2.5876E-06
  2.5876E-06
  2.5876E-06
  2.5876E-06
  9.6573E-06
  9.6573E-06
  9.6573E-06
  9.6573E-06
  9.6573E-06
  9.6573E-06
  9.6573E-06
  9.6573E-06
  9.6573E-06
  3.6042E-05
  3.6042E-05
  3.6042E-05
  3.6042E-05
  3.6042E-05
  3.6042E-05
  3.6042E-05
  3.6042E-05
  3.6042E-05
  1.3451E-04
  1.3451E-04
  1.3451E-04
  1.3451E-04
  1.3451E-04
  1.3451E-04
  1.3451E-04
  1.3451E-04
  1.3451E-04
  5.0201E-04
  5.0201E-04
  5.0201E-04
  5.0201E-04
  5.0201E-04
  5.0201E-04
  5.0201E-04
  5.0201E-04
  5.0201E-04
  1.8735E-03
  1.8735E-03
  1.8735E-03
  1.8735E-03
  1.8735E-03
  1.8735E-03
  1.8735E-03
  1.8735E-03
  1.8735E-03
  6.9922E-03
  6.9922E-03
  6.9922E-03
  6.9922E-03
  6.9922E-03
  6.9922E-03
  6.9922E-03
  6.9922E-03
  6.9922E-03
  1.1029E-02
  1.1029E-02
  1.1029E-02
  1.1029E-02
  1.1029E-02
  1.1029E-02
  1.1029E-02
  1.1029E-02
  1.1029E-02
   2.6000E-03
  1.1859E-13
  1.1859E-13
  1.1859E-13
  1.1859E-13
  1.1859E-13
  1.1859E-13
  1.1859E-13
  1.1859E-13
  1.1859E-13
  3.5579E-13
  3.5579E-13
  3.5579E-13
  3.5579E-13
  3.5579E-13
  3.5579E-13
  3.5579E-13
  3.5579E-13
  3.5579E-13
  1.4232E-12
  1.4232E-12
  1.4232E-12
  1.4232E-12
  1.4232E-12
  1.4232E-12
  1.4232E-12
  1.4232E-12
  1.4232E-12
  5.3370E-12
  5.3370E-12
  5.3370E-12
  5.3370E-12
  5.3370E-12
  5.3370E-12
  5.3370E-12
  5.3370E-12
  5.3370E-12
  1.9925E-11
  1.9925E-11
  1.9925E-11
  1.9925E-11
  1.9925E-11
  1.9925E-11
  1.9925E-11
  1.9925E-11
  1.9925E-11
  7.4363E-11
  7.4363E-11
  7.4363E-11
  7.4363E-11
  7.4363E-11
  7.4363E-11
  7.4363E-11
  7.4363E-11
  7.4363E-11
  2.7753E-10
  2.7753E-10
  2.7753E-10
  2.7753E-10
  2.7753E-10
  2.7753E-10
  2.7753E-10
  2.7753E-10
  2.7753E-10
  1.0358E-09
  1.0358E-09
  1.0358E-09
  1.0358E-09
  1.0358E-09
  1.0358E-09
  1.0358E-09
  1.0358E-09
  1.0358E-09
  3.8656E-09
  3.8656E-09
  3.8656E-09
  3.8656E-09
  3.8656E-09
  3.8656E-09
  3.8656E-09
  3.8656E-09
  3.8656E-09
  1.4427E-08
  1.4427E-08
  1.4427E-08
  1.4427E-08
  1.4427E-08
  1.4427E-08
  1.4427E-08
  1.4427E-08
  1.4427E-08
  5.3841E-08
  5.3841E-08
  5.3841E-08
  5.3841E-08
  5.3841E-08
  5.3841E-08
  5.3841E-08
  5.3841E-08
  5.3841E-08
  2.0094E-07
  2.0094E-07
  2.0094E-07
  2.0094E-07
  2.0094E-07
  2.0094E-07
  2.0094E-07
  2.0094E-07
  2.0094E-07
  7.4993E-07
  7.4993E-07
  7.4993E-07
  7.4993E-07
  7.4993E-07
  7.4993E-07
  7.4993E-07
  7.4993E-07
  7.4993E-07
  2.7988E-06
  2.7988E-06
  2.7988E-06
  2.7988E-06
  2.7988E-06
  2.7988E-06
  2.7988E-06
  2.7988E-06
  2.7988E-06
  1.0445E-05
  1.0445E-05
  1.0445E-05
  1.0445E-05
  1.0445E-05
  1.0445E-05
  1.0445E-05
  1.0445E-05
  1.0445E-05
  3.8983E-05
  3.8983E-05
  3.8983E-05
  3.8983E-05
  3.8983E-05
  3.8983E-05
  3.8983E-05
  3.8983E-05
  3.8983E-05
  1.4549E-04
  1.4549E-04
  1.4549E-04
  1.4549E-04
  1.4549E-04
  1.4549E-04
  1.4549E-04
  1.4549E-04
  1.4549E-04
  5.4297E-04
  5.4297E-04
  5.4297E-04
  5.4297E-04
  5.4297E-04
  5.4297E-04
  5.4297E-04
  5.4297E-04
  5.4297E-04
  2.0264E-03
  2.0264E-03
  2.0264E-03
  2.0264E-03
  2.0264E-03
  2.0264E-03
  2.0264E-03
  2.0264E-03
  2.0264E-03
  7.5627E-03
  7.5627E-03
  7.5627E-03
  7.5627E-03
  7.5627E-03
  7.5627E-03
  7.5627E-03
  7.5627E-03
  7.5627E-03
  1.1929E-02
  1.1929E-02
  1.1929E-02
  1.1929E-02
  1.1929E-02
  1.1929E-02
  1.1929E-02
  1.1929E-02
  1.1929E-02
   2.7000E-03
  1.2789E-13
  1.2789E-13
  1.2789E-13
  1.2789E-13
  1.2789E-13
  1.2789E-13
  1.2789E-13
  1.2789E-13
  1.2789E-13
  3.8368E-13
  3.8368E-13
  3.8368E-13
  3.8368E-13
  3.8368E-13
  3.8368E-13
  3.8368E-13
  3.8368E-13
  3.8368E-13
  1.5347E-12
  1.5347E-12
  1.5347E-12
  1.5347E-12
  1.5347E-12
  1.5347E-12
  1.5347E-12
  1.5347E-12
  1.5347E-12
  5.7553E-12
  5.7553E-12
  5.7553E-12
  5.7553E-12
  5.7553E-12
  5.7553E-12
  5.7553E-12
  5.7553E-12
  5.7553E-12
  2.1487E-11
  2.1487E-11
  2.1487E-11
  2.1487E-11
  2.1487E-11
  2.1487E-11
  2.1487E-11
  2.1487E-11
  2.1487E-11
  8.0192E-11
  8.0192E-11
  8.0192E-11
  8.0192E-11
  8.0192E-11
  8.0192E-11
  8.0192E-11
  8.0192E-11
  8.0192E-11
  2.9929E-10
  2.9929E-10
  2.9929E-10
  2.9929E-10
  2.9929E-10
  2.9929E-10
  2.9929E-10
  2.9929E-10
  2.9929E-10
  1.1170E-09
  1.1170E-09
  1.1170E-09
  1.1170E-09
  1.1170E-09
  1.1170E-09
  1.1170E-09
  1.1170E-09
  1.1170E-09
  4.1686E-09
  4.1686E-09
  4.1686E-09
  4.1686E-09
  4.1686E-09
  4.1686E-09
  4.1686E-09
  4.1686E-09
  4.1686E-09
  1.5558E-08
  1.5558E-08
  1.5558E-08
  1.5558E-08
  1.5558E-08
  1.5558E-08
  1.5558E-08
  1.5558E-08
  1.5558E-08
  5.8062E-08
  5.8062E-08
  5.8062E-08
  5.8062E-08
  5.8062E-08
  5.8062E-08
  5.8062E-08
  5.8062E-08
  5.8062E-08
  2.1669E-07
  2.1669E-07
  2.1669E-07
  2.1669E-07
  2.1669E-07
  2.1669E-07
  2.1669E-07
  2.1669E-07
  2.1669E-07
  8.0872E-07
  8.0872E-07
  8.0872E-07
  8.0872E-07
  8.0872E-07
  8.0872E-07
  8.0872E-07
  8.0872E-07
  8.0872E-07
  3.0182E-06
  3.0182E-06
  3.0182E-06
  3.0182E-06
  3.0182E-06
  3.0182E-06
  3.0182E-06
  3.0182E-06
  3.0182E-06
  1.1264E-05
  1.1264E-05
  1.1264E-05
  1.1264E-05
  1.1264E-05
  1.1264E-05
  1.1264E-05
  1.1264E-05
  1.1264E-05
  4.2039E-05
  4.2039E-05
  4.2039E-05
  4.2039E-05
  4.2039E-05
  4.2039E-05
  4.2039E-05
  4.2039E-05
  4.2039E-05
  1.5689E-04
  1.5689E-04
  1.5689E-04
  1.5689E-04
  1.5689E-04
  1.5689E-04
  1.5689E-04
  1.5689E-04
  1.5689E-04
  5.8554E-04
  5.8554E-04
  5.8554E-04
  5.8554E-04
  5.8554E-04
  5.8554E-04
  5.8554E-04
  5.8554E-04
  5.8554E-04
  2.1853E-03
  2.1853E-03
  2.1853E-03
  2.1853E-03
  2.1853E-03
  2.1853E-03
  2.1853E-03
  2.1853E-03
  2.1853E-03
  8.1557E-03
  8.1557E-03
  8.1557E-03
  8.1557E-03
  8.1557E-03
  8.1557E-03
  8.1557E-03
  8.1557E-03
  8.1557E-03
  1.2864E-02
  1.2864E-02
  1.2864E-02
  1.2864E-02
  1.2864E-02
  1.2864E-02
  1.2864E-02
  1.2864E-02
  1.2864E-02
   2.8000E-03
  1.3754E-13
  1.3754E-13
  1.3754E-13
  1.3754E-13
  1.3754E-13
  1.3754E-13
  1.3754E-13
  1.3754E-13
  1.3754E-13
  4.1262E-13
  4.1262E-13
  4.1262E-13
  4.1262E-13
  4.1262E-13
  4.1262E-13
  4.1262E-13
  4.1262E-13
  4.1262E-13
  1.6505E-12
  1.6505E-12
  1.6505E-12
  1.6505E-12
  1.6505E-12
  1.6505E-12
  1.6505E-12
  1.6505E-12
  1.6505E-12
  6.1895E-12
  6.1895E-12
  6.1895E-12
  6.1895E-12
  6.1895E-12
  6.1895E-12
  6.1895E-12
  6.1895E-12
  6.1895E-12
  2.3108E-11
  2.3108E-11
  2.3108E-11
  2.3108E-11
  2.3108E-11
  2.3108E-11
  2.3108E-11
  2.3108E-11
  2.3108E-11
  8.6242E-11
  8.6242E-11
  8.6242E-11
  8.6242E-11
  8.6242E-11
  8.6242E-11
  8.6242E-11
  8.6242E-11
  8.6242E-11
  3.2186E-10
  3.2186E-10
  3.2186E-10
  3.2186E-10
  3.2186E-10
  3.2186E-10
  3.2186E-10
  3.2186E-10
  3.2186E-10
  1.2012E-09
  1.2012E-09
  1.2012E-09
  1.2012E-09
  1.2012E-09
  1.2012E-09
  1.2012E-09
  1.2012E-09
  1.2012E-09
  4.4831E-09
  4.4831E-09
  4.4831E-09
  4.4831E-09
  4.4831E-09
  4.4831E-09
  4.4831E-09
  4.4831E-09
  4.4831E-09
  1.6731E-08
  1.6731E-08
  1.6731E-08
  1.6731E-08
  1.6731E-08
  1.6731E-08
  1.6731E-08
  1.6731E-08
  1.6731E-08
  6.2442E-08
  6.2442E-08
  6.2442E-08
  6.2442E-08
  6.2442E-08
  6.2442E-08
  6.2442E-08
  6.2442E-08
  6.2442E-08
  2.3304E-07
  2.3304E-07
  2.3304E-07
  2.3304E-07
  2.3304E-07
  2.3304E-07
  2.3304E-07
  2.3304E-07
  2.3304E-07
  8.6973E-07
  8.6973E-07
  8.6973E-07
  8.6973E-07
  8.6973E-07
  8.6973E-07
  8.6973E-07
  8.6973E-07
  8.6973E-07
  3.2459E-06
  3.2459E-06
  3.2459E-06
  3.2459E-06
  3.2459E-06
  3.2459E-06
  3.2459E-06
  3.2459E-06
  3.2459E-06
  1.2114E-05
  1.2114E-05
  1.2114E-05
  1.2114E-05
  1.2114E-05
  1.2114E-05
  1.2114E-05
  1.2114E-05
  1.2114E-05
  4.5210E-05
  4.5210E-05
  4.5210E-05
  4.5210E-05
  4.5210E-05
  4.5210E-05
  4.5210E-05
  4.5210E-05
  4.5210E-05
  1.6873E-04
  1.6873E-04
  1.6873E-04
  1.6873E-04
  1.6873E-04
  1.6873E-04
  1.6873E-04
  1.6873E-04
  1.6873E-04
  6.2971E-04
  6.2971E-04
  6.2971E-04
  6.2971E-04
  6.2971E-04
  6.2971E-04
  6.2971E-04
  6.2971E-04
  6.2971E-04
  2.3501E-03
  2.3501E-03
  2.3501E-03
  2.3501E-03
  2.3501E-03
  2.3501E-03
  2.3501E-03
  2.3501E-03
  2.3501E-03
  8.7710E-03
  8.7710E-03
  8.7710E-03
  8.7710E-03
  8.7710E-03
  8.7710E-03
  8.7710E-03
  8.7710E-03
  8.7710E-03
  1.3835E-02
  1.3835E-02
  1.3835E-02
  1.3835E-02
  1.3835E-02
  1.3835E-02
  1.3835E-02
  1.3835E-02
  1.3835E-02
   2.9000E-03
  1.4754E-13
  1.4754E-13
  1.4754E-13
  1.4754E-13
  1.4754E-13
  1.4754E-13
  1.4754E-13
  1.4754E-13
  1.4754E-13
  4.4261E-13
  4.4261E-13
  4.4261E-13
  4.4261E-13
  4.4261E-13
  4.4261E-13
  4.4261E-13
  4.4261E-13
  4.4261E-13
  1.7705E-12
  1.7705E-12
  1.7705E-12
  1.7705E-12
  1.7705E-12
  1.7705E-12
  1.7705E-12
  1.7705E-12
  1.7705E-12
  6.6394E-12
  6.6394E-12
  6.6394E-12
  6.6394E-12
  6.6394E-12
  6.6394E-12
  6.6394E-12
  6.6394E-12
  6.6394E-12
  2.4787E-11
  2.4787E-11
  2.4787E-11
  2.4787E-11
  2.4787E-11
  2.4787E-11
  2.4787E-11
  2.4787E-11
  2.4787E-11
  9.2511E-11
  9.2511E-11
  9.2511E-11
  9.2511E-11
  9.2511E-11
  9.2511E-11
  9.2511E-11
  9.2511E-11
  9.2511E-11
  3.4526E-10
  3.4526E-10
  3.4526E-10
  3.4526E-10
  3.4526E-10
  3.4526E-10
  3.4526E-10
  3.4526E-10
  3.4526E-10
  1.2885E-09
  1.2885E-09
  1.2885E-09
  1.2885E-09
  1.2885E-09
  1.2885E-09
  1.2885E-09
  1.2885E-09
  1.2885E-09
  4.8089E-09
  4.8089E-09
  4.8089E-09
  4.8089E-09
  4.8089E-09
  4.8089E-09
  4.8089E-09
  4.8089E-09
  4.8089E-09
  1.7947E-08
  1.7947E-08
  1.7947E-08
  1.7947E-08
  1.7947E-08
  1.7947E-08
  1.7947E-08
  1.7947E-08
  1.7947E-08
  6.6981E-08
  6.6981E-08
  6.6981E-08
  6.6981E-08
  6.6981E-08
  6.6981E-08
  6.6981E-08
  6.6981E-08
  6.6981E-08
  2.4998E-07
  2.4998E-07
  2.4998E-07
  2.4998E-07
  2.4998E-07
  2.4998E-07
  2.4998E-07
  2.4998E-07
  2.4998E-07
  9.3295E-07
  9.3295E-07
  9.3295E-07
  9.3295E-07
  9.3295E-07
  9.3295E-07
  9.3295E-07
  9.3295E-07
  9.3295E-07
  3.4819E-06
  3.4819E-06
  3.4819E-06
  3.4819E-06
  3.4819E-06
  3.4819E-06
  3.4819E-06
  3.4819E-06
  3.4819E-06
  1.2995E-05
  1.2995E-05
  1.2995E-05
  1.2995E-05
  1.2995E-05
  1.2995E-05
  1.2995E-05
  1.2995E-05
  1.2995E-05
  4.8497E-05
  4.8497E-05
  4.8497E-05
  4.8497E-05
  4.8497E-05
  4.8497E-05
  4.8497E-05
  4.8497E-05
  4.8497E-05
  1.8100E-04
  1.8100E-04
  1.8100E-04
  1.8100E-04
  1.8100E-04
  1.8100E-04
  1.8100E-04
  1.8100E-04
  1.8100E-04
  6.7549E-04
  6.7549E-04
  6.7549E-04
  6.7549E-04
  6.7549E-04
  6.7549E-04
  6.7549E-04
  6.7549E-04
  6.7549E-04
  2.5210E-03
  2.5210E-03
  2.5210E-03
  2.5210E-03
  2.5210E-03
  2.5210E-03
  2.5210E-03
  2.5210E-03
  2.5210E-03
  9.4086E-03
  9.4086E-03
  9.4086E-03
  9.4086E-03
  9.4086E-03
  9.4086E-03
  9.4086E-03
  9.4086E-03
  9.4086E-03
  1.4841E-02
  1.4841E-02
  1.4841E-02
  1.4841E-02
  1.4841E-02
  1.4841E-02
  1.4841E-02
  1.4841E-02
  1.4841E-02
   3.0000E-03
  1.5788E-13
  1.5788E-13
  1.5788E-13
  1.5788E-13
  1.5788E-13
  1.5788E-13
  1.5788E-13
  1.5788E-13
  1.5788E-13
  4.7366E-13
  4.7366E-13
  4.7366E-13
  4.7366E-13
  4.7366E-13
  4.7366E-13
  4.7366E-13
  4.7366E-13
  4.7366E-13
  1.8947E-12
  1.8947E-12
  1.8947E-12
  1.8947E-12
  1.8947E-12
  1.8947E-12
  1.8947E-12
  1.8947E-12
  1.8947E-12
  7.1051E-12
  7.1051E-12
  7.1051E-12
  7.1051E-12
  7.1051E-12
  7.1051E-12
  7.1051E-12
  7.1051E-12
  7.1051E-12
  2.6526E-11
  2.6526E-11
  2.6526E-11
  2.6526E-11
  2.6526E-11
  2.6526E-11
  2.6526E-11
  2.6526E-11
  2.6526E-11
  9.8999E-11
  9.8999E-11
  9.8999E-11
  9.8999E-11
  9.8999E-11
  9.8999E-11
  9.8999E-11
  9.8999E-11
  9.8999E-11
  3.6948E-10
  3.6948E-10
  3.6948E-10
  3.6948E-10
  3.6948E-10
  3.6948E-10
  3.6948E-10
  3.6948E-10
  3.6948E-10
  1.3789E-09
  1.3789E-09
  1.3789E-09
  1.3789E-09
  1.3789E-09
  1.3789E-09
  1.3789E-09
  1.3789E-09
  1.3789E-09
  5.1463E-09
  5.1463E-09
  5.1463E-09
  5.1463E-09
  5.1463E-09
  5.1463E-09
  5.1463E-09
  5.1463E-09
  5.1463E-09
  1.9206E-08
  1.9206E-08
  1.9206E-08
  1.9206E-08
  1.9206E-08
  1.9206E-08
  1.9206E-08
  1.9206E-08
  1.9206E-08
  7.1680E-08
  7.1680E-08
  7.1680E-08
  7.1680E-08
  7.1680E-08
  7.1680E-08
  7.1680E-08
  7.1680E-08
  7.1680E-08
  2.6752E-07
  2.6752E-07
  2.6752E-07
  2.6752E-07
  2.6752E-07
  2.6752E-07
  2.6752E-07
  2.6752E-07
  2.6752E-07
  9.9840E-07
  9.9840E-07
  9.9840E-07
  9.9840E-07
  9.9840E-07
  9.9840E-07
  9.9840E-07
  9.9840E-07
  9.9840E-07
  3.7261E-06
  3.7261E-06
  3.7261E-06
  3.7261E-06
  3.7261E-06
  3.7261E-06
  3.7261E-06
  3.7261E-06
  3.7261E-06
  1.3906E-05
  1.3906E-05
  1.3906E-05
  1.3906E-05
  1.3906E-05
  1.3906E-05
  1.3906E-05
  1.3906E-05
  1.3906E-05
  5.1899E-05
  5.1899E-05
  5.1899E-05
  5.1899E-05
  5.1899E-05
  5.1899E-05
  5.1899E-05
  5.1899E-05
  5.1899E-05
  1.9369E-04
  1.9369E-04
  1.9369E-04
  1.9369E-04
  1.9369E-04
  1.9369E-04
  1.9369E-04
  1.9369E-04
  1.9369E-04
  7.2288E-04
  7.2288E-04
  7.2288E-04
  7.2288E-04
  7.2288E-04
  7.2288E-04
  7.2288E-04
  7.2288E-04
  7.2288E-04
  2.6979E-03
  2.6979E-03
  2.6979E-03
  2.6979E-03
  2.6979E-03
  2.6979E-03
  2.6979E-03
  2.6979E-03
  2.6979E-03
  1.0069E-02
  1.0069E-02
  1.0069E-02
  1.0069E-02
  1.0069E-02
  1.0069E-02
  1.0069E-02
  1.0069E-02
  1.0069E-02
  1.5882E-02
  1.5882E-02
  1.5882E-02
  1.5882E-02
  1.5882E-02
  1.5882E-02
  1.5882E-02
  1.5882E-02
  1.5882E-02
   3.1000E-03
  1.6858E-13
  1.6858E-13
  1.6858E-13
  1.6858E-13
  1.6858E-13
  1.6858E-13
  1.6858E-13
  1.6858E-13
  1.6858E-13
  5.0575E-13
  5.0575E-13
  5.0575E-13
  5.0575E-13
  5.0575E-13
  5.0575E-13
  5.0575E-13
  5.0575E-13
  5.0575E-13
  2.0230E-12
  2.0230E-12
  2.0230E-12
  2.0230E-12
  2.0230E-12
  2.0230E-12
  2.0230E-12
  2.0230E-12
  2.0230E-12
  7.5865E-12
  7.5865E-12
  7.5865E-12
  7.5865E-12
  7.5865E-12
  7.5865E-12
  7.5865E-12
  7.5865E-12
  7.5865E-12
  2.8323E-11
  2.8323E-11
  2.8323E-11
  2.8323E-11
  2.8323E-11
  2.8323E-11
  2.8323E-11
  2.8323E-11
  2.8323E-11
  1.0571E-10
  1.0571E-10
  1.0571E-10
  1.0571E-10
  1.0571E-10
  1.0571E-10
  1.0571E-10
  1.0571E-10
  1.0571E-10
  3.9451E-10
  3.9451E-10
  3.9451E-10
  3.9451E-10
  3.9451E-10
  3.9451E-10
  3.9451E-10
  3.9451E-10
  3.9451E-10
  1.4724E-09
  1.4724E-09
  1.4724E-09
  1.4724E-09
  1.4724E-09
  1.4724E-09
  1.4724E-09
  1.4724E-09
  1.4724E-09
  5.4950E-09
  5.4950E-09
  5.4950E-09
  5.4950E-09
  5.4950E-09
  5.4950E-09
  5.4950E-09
  5.4950E-09
  5.4950E-09
  2.0508E-08
  2.0508E-08
  2.0508E-08
  2.0508E-08
  2.0508E-08
  2.0508E-08
  2.0508E-08
  2.0508E-08
  2.0508E-08
  7.6538E-08
  7.6538E-08
  7.6538E-08
  7.6538E-08
  7.6538E-08
  7.6538E-08
  7.6538E-08
  7.6538E-08
  7.6538E-08
  2.8565E-07
  2.8565E-07
  2.8565E-07
  2.8565E-07
  2.8565E-07
  2.8565E-07
  2.8565E-07
  2.8565E-07
  2.8565E-07
  1.0661E-06
  1.0661E-06
  1.0661E-06
  1.0661E-06
  1.0661E-06
  1.0661E-06
  1.0661E-06
  1.0661E-06
  1.0661E-06
  3.9786E-06
  3.9786E-06
  3.9786E-06
  3.9786E-06
  3.9786E-06
  3.9786E-06
  3.9786E-06
  3.9786E-06
  3.9786E-06
  1.4849E-05
  1.4849E-05
  1.4849E-05
  1.4849E-05
  1.4849E-05
  1.4849E-05
  1.4849E-05
  1.4849E-05
  1.4849E-05
  5.5417E-05
  5.5417E-05
  5.5417E-05
  5.5417E-05
  5.5417E-05
  5.5417E-05
  5.5417E-05
  5.5417E-05
  5.5417E-05
  2.0682E-04
  2.0682E-04
  2.0682E-04
  2.0682E-04
  2.0682E-04
  2.0682E-04
  2.0682E-04
  2.0682E-04
  2.0682E-04
  7.7188E-04
  7.7188E-04
  7.7188E-04
  7.7188E-04
  7.7188E-04
  7.7188E-04
  7.7188E-04
  7.7188E-04
  7.7188E-04
  2.8807E-03
  2.8807E-03
  2.8807E-03
  2.8807E-03
  2.8807E-03
  2.8807E-03
  2.8807E-03
  2.8807E-03
  2.8807E-03
  1.0751E-02
  1.0751E-02
  1.0751E-02
  1.0751E-02
  1.0751E-02
  1.0751E-02
  1.0751E-02
  1.0751E-02
  1.0751E-02
  1.6958E-02
  1.6958E-02
  1.6958E-02
  1.6958E-02
  1.6958E-02
  1.6958E-02
  1.6958E-02
  1.6958E-02
  1.6958E-02
   3.2000E-03
  1.7963E-13
  1.7963E-13
  1.7963E-13
  1.7963E-13
  1.7963E-13
  1.7963E-13
  1.7963E-13
  1.7963E-13
  1.7963E-13
  5.3890E-13
  5.3890E-13
  5.3890E-13
  5.3890E-13
  5.3890E-13
  5.3890E-13
  5.3890E-13
  5.3890E-13
  5.3890E-13
  2.1556E-12
  2.1556E-12
  2.1556E-12
  2.1556E-12
  2.1556E-12
  2.1556E-12
  2.1556E-12
  2.1556E-12
  2.1556E-12
  8.0837E-12
  8.0837E-12
  8.0837E-12
  8.0837E-12
  8.0837E-12
  8.0837E-12
  8.0837E-12
  8.0837E-12
  8.0837E-12
  3.0180E-11
  3.0180E-11
  3.0180E-11
  3.0180E-11
  3.0180E-11
  3.0180E-11
  3.0180E-11
  3.0180E-11
  3.0180E-11
  1.1264E-10
  1.1264E-10
  1.1264E-10
  1.1264E-10
  1.1264E-10
  1.1264E-10
  1.1264E-10
  1.1264E-10
  1.1264E-10
  4.2037E-10
  4.2037E-10
  4.2037E-10
  4.2037E-10
  4.2037E-10
  4.2037E-10
  4.2037E-10
  4.2037E-10
  4.2037E-10
  1.5689E-09
  1.5689E-09
  1.5689E-09
  1.5689E-09
  1.5689E-09
  1.5689E-09
  1.5689E-09
  1.5689E-09
  1.5689E-09
  5.8552E-09
  5.8552E-09
  5.8552E-09
  5.8552E-09
  5.8552E-09
  5.8552E-09
  5.8552E-09
  5.8552E-09
  5.8552E-09
  2.1852E-08
  2.1852E-08
  2.1852E-08
  2.1852E-08
  2.1852E-08
  2.1852E-08
  2.1852E-08
  2.1852E-08
  2.1852E-08
  8.1555E-08
  8.1555E-08
  8.1555E-08
  8.1555E-08
  8.1555E-08
  8.1555E-08
  8.1555E-08
  8.1555E-08
  8.1555E-08
  3.0437E-07
  3.0437E-07
  3.0437E-07
  3.0437E-07
  3.0437E-07
  3.0437E-07
  3.0437E-07
  3.0437E-07
  3.0437E-07
  1.1359E-06
  1.1359E-06
  1.1359E-06
  1.1359E-06
  1.1359E-06
  1.1359E-06
  1.1359E-06
  1.1359E-06
  1.1359E-06
  4.2394E-06
  4.2394E-06
  4.2394E-06
  4.2394E-06
  4.2394E-06
  4.2394E-06
  4.2394E-06
  4.2394E-06
  4.2394E-06
  1.5822E-05
  1.5822E-05
  1.5822E-05
  1.5822E-05
  1.5822E-05
  1.5822E-05
  1.5822E-05
  1.5822E-05
  1.5822E-05
  5.9049E-05
  5.9049E-05
  5.9049E-05
  5.9049E-05
  5.9049E-05
  5.9049E-05
  5.9049E-05
  5.9049E-05
  5.9049E-05
  2.2038E-04
  2.2038E-04
  2.2038E-04
  2.2038E-04
  2.2038E-04
  2.2038E-04
  2.2038E-04
  2.2038E-04
  2.2038E-04
  8.2248E-04
  8.2248E-04
  8.2248E-04
  8.2248E-04
  8.2248E-04
  8.2248E-04
  8.2248E-04
  8.2248E-04
  8.2248E-04
  3.0696E-03
  3.0696E-03
  3.0696E-03
  3.0696E-03
  3.0696E-03
  3.0696E-03
  3.0696E-03
  3.0696E-03
  3.0696E-03
  1.1456E-02
  1.1456E-02
  1.1456E-02
  1.1456E-02
  1.1456E-02
  1.1456E-02
  1.1456E-02
  1.1456E-02
  1.1456E-02
  1.8070E-02
  1.8070E-02
  1.8070E-02
  1.8070E-02
  1.8070E-02
  1.8070E-02
  1.8070E-02
  1.8070E-02
  1.8070E-02
   3.3000E-03
  1.9103E-13
  1.9103E-13
  1.9103E-13
  1.9103E-13
  1.9103E-13
  1.9103E-13
  1.9103E-13
  1.9103E-13
  1.9103E-13
  5.7310E-13
  5.7310E-13
  5.7310E-13
  5.7310E-13
  5.7310E-13
  5.7310E-13
  5.7310E-13
  5.7310E-13
  5.7310E-13
  2.2924E-12
  2.2924E-12
  2.2924E-12
  2.2924E-12
  2.2924E-12
  2.2924E-12
  2.2924E-12
  2.2924E-12
  2.2924E-12
  8.5967E-12
  8.5967E-12
  8.5967E-12
  8.5967E-12
  8.5967E-12
  8.5967E-12
  8.5967E-12
  8.5967E-12
  8.5967E-12
  3.2095E-11
  3.2095E-11
  3.2095E-11
  3.2095E-11
  3.2095E-11
  3.2095E-11
  3.2095E-11
  3.2095E-11
  3.2095E-11
  1.1978E-10
  1.1978E-10
  1.1978E-10
  1.1978E-10
  1.1978E-10
  1.1978E-10
  1.1978E-10
  1.1978E-10
  1.1978E-10
  4.4705E-10
  4.4705E-10
  4.4705E-10
  4.4705E-10
  4.4705E-10
  4.4705E-10
  4.4705E-10
  4.4705E-10
  4.4705E-10
  1.6684E-09
  1.6684E-09
  1.6684E-09
  1.6684E-09
  1.6684E-09
  1.6684E-09
  1.6684E-09
  1.6684E-09
  1.6684E-09
  6.2268E-09
  6.2268E-09
  6.2268E-09
  6.2268E-09
  6.2268E-09
  6.2268E-09
  6.2268E-09
  6.2268E-09
  6.2268E-09
  2.3239E-08
  2.3239E-08
  2.3239E-08
  2.3239E-08
  2.3239E-08
  2.3239E-08
  2.3239E-08
  2.3239E-08
  2.3239E-08
  8.6731E-08
  8.6731E-08
  8.6731E-08
  8.6731E-08
  8.6731E-08
  8.6731E-08
  8.6731E-08
  8.6731E-08
  8.6731E-08
  3.2369E-07
  3.2369E-07
  3.2369E-07
  3.2369E-07
  3.2369E-07
  3.2369E-07
  3.2369E-07
  3.2369E-07
  3.2369E-07
  1.2080E-06
  1.2080E-06
  1.2080E-06
  1.2080E-06
  1.2080E-06
  1.2080E-06
  1.2080E-06
  1.2080E-06
  1.2080E-06
  4.5085E-06
  4.5085E-06
  4.5085E-06
  4.5085E-06
  4.5085E-06
  4.5085E-06
  4.5085E-06
  4.5085E-06
  4.5085E-06
  1.6826E-05
  1.6826E-05
  1.6826E-05
  1.6826E-05
  1.6826E-05
  1.6826E-05
  1.6826E-05
  1.6826E-05
  1.6826E-05
  6.2797E-05
  6.2797E-05
  6.2797E-05
  6.2797E-05
  6.2797E-05
  6.2797E-05
  6.2797E-05
  6.2797E-05
  6.2797E-05
  2.3437E-04
  2.3437E-04
  2.3437E-04
  2.3437E-04
  2.3437E-04
  2.3437E-04
  2.3437E-04
  2.3437E-04
  2.3437E-04
  8.7468E-04
  8.7468E-04
  8.7468E-04
  8.7468E-04
  8.7468E-04
  8.7468E-04
  8.7468E-04
  8.7468E-04
  8.7468E-04
  3.2644E-03
  3.2644E-03
  3.2644E-03
  3.2644E-03
  3.2644E-03
  3.2644E-03
  3.2644E-03
  3.2644E-03
  3.2644E-03
  1.2183E-02
  1.2183E-02
  1.2183E-02
  1.2183E-02
  1.2183E-02
  1.2183E-02
  1.2183E-02
  1.2183E-02
  1.2183E-02
  1.9217E-02
  1.9217E-02
  1.9217E-02
  1.9217E-02
  1.9217E-02
  1.9217E-02
  1.9217E-02
  1.9217E-02
  1.9217E-02
   3.4000E-03
  2.0278E-13
  2.0278E-13
  2.0278E-13
  2.0278E-13
  2.0278E-13
  2.0278E-13
  2.0278E-13
  2.0278E-13
  2.0278E-13
  6.0835E-13
  6.0835E-13
  6.0835E-13
  6.0835E-13
  6.0835E-13
  6.0835E-13
  6.0835E-13
  6.0835E-13
  6.0835E-13
  2.4334E-12
  2.4334E-12
  2.4334E-12
  2.4334E-12
  2.4334E-12
  2.4334E-12
  2.4334E-12
  2.4334E-12
  2.4334E-12
  9.1255E-12
  9.1255E-12
  9.1255E-12
  9.1255E-12
  9.1255E-12
  9.1255E-12
  9.1255E-12
  9.1255E-12
  9.1255E-12
  3.4069E-11
  3.4069E-11
  3.4069E-11
  3.4069E-11
  3.4069E-11
  3.4069E-11
  3.4069E-11
  3.4069E-11
  3.4069E-11
  1.2715E-10
  1.2715E-10
  1.2715E-10
  1.2715E-10
  1.2715E-10
  1.2715E-10
  1.2715E-10
  1.2715E-10
  1.2715E-10
  4.7455E-10
  4.7455E-10
  4.7455E-10
  4.7455E-10
  4.7455E-10
  4.7455E-10
  4.7455E-10
  4.7455E-10
  4.7455E-10
  1.7711E-09
  1.7711E-09
  1.7711E-09
  1.7711E-09
  1.7711E-09
  1.7711E-09
  1.7711E-09
  1.7711E-09
  1.7711E-09
  6.6098E-09
  6.6098E-09
  6.6098E-09
  6.6098E-09
  6.6098E-09
  6.6098E-09
  6.6098E-09
  6.6098E-09
  6.6098E-09
  2.4669E-08
  2.4669E-08
  2.4669E-08
  2.4669E-08
  2.4669E-08
  2.4669E-08
  2.4669E-08
  2.4669E-08
  2.4669E-08
  9.2066E-08
  9.2066E-08
  9.2066E-08
  9.2066E-08
  9.2066E-08
  9.2066E-08
  9.2066E-08
  9.2066E-08
  9.2066E-08
  3.4360E-07
  3.4360E-07
  3.4360E-07
  3.4360E-07
  3.4360E-07
  3.4360E-07
  3.4360E-07
  3.4360E-07
  3.4360E-07
  1.2824E-06
  1.2824E-06
  1.2824E-06
  1.2824E-06
  1.2824E-06
  1.2824E-06
  1.2824E-06
  1.2824E-06
  1.2824E-06
  4.7859E-06
  4.7859E-06
  4.7859E-06
  4.7859E-06
  4.7859E-06
  4.7859E-06
  4.7859E-06
  4.7859E-06
  4.7859E-06
  1.7861E-05
  1.7861E-05
  1.7861E-05
  1.7861E-05
  1.7861E-05
  1.7861E-05
  1.7861E-05
  1.7861E-05
  1.7861E-05
  6.6661E-05
  6.6661E-05
  6.6661E-05
  6.6661E-05
  6.6661E-05
  6.6661E-05
  6.6661E-05
  6.6661E-05
  6.6661E-05
  2.4879E-04
  2.4879E-04
  2.4879E-04
  2.4879E-04
  2.4879E-04
  2.4879E-04
  2.4879E-04
  2.4879E-04
  2.4879E-04
  9.2849E-04
  9.2849E-04
  9.2849E-04
  9.2849E-04
  9.2849E-04
  9.2849E-04
  9.2849E-04
  9.2849E-04
  9.2849E-04
  3.4652E-03
  3.4652E-03
  3.4652E-03
  3.4652E-03
  3.4652E-03
  3.4652E-03
  3.4652E-03
  3.4652E-03
  3.4652E-03
  1.2933E-02
  1.2933E-02
  1.2933E-02
  1.2933E-02
  1.2933E-02
  1.2933E-02
  1.2933E-02
  1.2933E-02
  1.2933E-02
  2.0399E-02
  2.0399E-02
  2.0399E-02
  2.0399E-02
  2.0399E-02
  2.0399E-02
  2.0399E-02
  2.0399E-02
  2.0399E-02
   3.5000E-03
  2.1488E-13
  2.1488E-13
  2.1488E-13
  2.1488E-13
  2.1488E-13
  2.1488E-13
  2.1488E-13
  2.1488E-13
  2.1488E-13
  6.4465E-13
  6.4465E-13
  6.4465E-13
  6.4465E-13
  6.4465E-13
  6.4465E-13
  6.4465E-13
  6.4465E-13
  6.4465E-13
  2.5786E-12
  2.5786E-12
  2.5786E-12
  2.5786E-12
  2.5786E-12
  2.5786E-12
  2.5786E-12
  2.5786E-12
  2.5786E-12
  9.6701E-12
  9.6701E-12
  9.6701E-12
  9.6701E-12
  9.6701E-12
  9.6701E-12
  9.6701E-12
  9.6701E-12
  9.6701E-12
  3.6102E-11
  3.6102E-11
  3.6102E-11
  3.6102E-11
  3.6102E-11
  3.6102E-11
  3.6102E-11
  3.6102E-11
  3.6102E-11
  1.3474E-10
  1.3474E-10
  1.3474E-10
  1.3474E-10
  1.3474E-10
  1.3474E-10
  1.3474E-10
  1.3474E-10
  1.3474E-10
  5.0287E-10
  5.0287E-10
  5.0287E-10
  5.0287E-10
  5.0287E-10
  5.0287E-10
  5.0287E-10
  5.0287E-10
  5.0287E-10
  1.8768E-09
  1.8768E-09
  1.8768E-09
  1.8768E-09
  1.8768E-09
  1.8768E-09
  1.8768E-09
  1.8768E-09
  1.8768E-09
  7.0043E-09
  7.0043E-09
  7.0043E-09
  7.0043E-09
  7.0043E-09
  7.0043E-09
  7.0043E-09
  7.0043E-09
  7.0043E-09
  2.6141E-08
  2.6141E-08
  2.6141E-08
  2.6141E-08
  2.6141E-08
  2.6141E-08
  2.6141E-08
  2.6141E-08
  2.6141E-08
  9.7560E-08
  9.7560E-08
  9.7560E-08
  9.7560E-08
  9.7560E-08
  9.7560E-08
  9.7560E-08
  9.7560E-08
  9.7560E-08
  3.6411E-07
  3.6411E-07
  3.6411E-07
  3.6411E-07
  3.6411E-07
  3.6411E-07
  3.6411E-07
  3.6411E-07
  3.6411E-07
  1.3589E-06
  1.3589E-06
  1.3589E-06
  1.3589E-06
  1.3589E-06
  1.3589E-06
  1.3589E-06
  1.3589E-06
  1.3589E-06
  5.0715E-06
  5.0715E-06
  5.0715E-06
  5.0715E-06
  5.0715E-06
  5.0715E-06
  5.0715E-06
  5.0715E-06
  5.0715E-06
  1.8927E-05
  1.8927E-05
  1.8927E-05
  1.8927E-05
  1.8927E-05
  1.8927E-05
  1.8927E-05
  1.8927E-05
  1.8927E-05
  7.0639E-05
  7.0639E-05
  7.0639E-05
  7.0639E-05
  7.0639E-05
  7.0639E-05
  7.0639E-05
  7.0639E-05
  7.0639E-05
  2.6363E-04
  2.6363E-04
  2.6363E-04
  2.6363E-04
  2.6363E-04
  2.6363E-04
  2.6363E-04
  2.6363E-04
  2.6363E-04
  9.8391E-04
  9.8391E-04
  9.8391E-04
  9.8391E-04
  9.8391E-04
  9.8391E-04
  9.8391E-04
  9.8391E-04
  9.8391E-04
  3.6721E-03
  3.6721E-03
  3.6721E-03
  3.6721E-03
  3.6721E-03
  3.6721E-03
  3.6721E-03
  3.6721E-03
  3.6721E-03
  1.3705E-02
  1.3705E-02
  1.3705E-02
  1.3705E-02
  1.3705E-02
  1.3705E-02
  1.3705E-02
  1.3705E-02
  1.3705E-02
  2.1617E-02
  2.1617E-02
  2.1617E-02
  2.1617E-02
  2.1617E-02
  2.1617E-02
  2.1617E-02
  2.1617E-02
  2.1617E-02
   3.6000E-03
  2.2733E-13
  2.2733E-13
  2.2733E-13
  2.2733E-13
  2.2733E-13
  2.2733E-13
  2.2733E-13
  2.2733E-13
  2.2733E-13
  6.8200E-13
  6.8200E-13
  6.8200E-13
  6.8200E-13
  6.8200E-13
  6.8200E-13
  6.8200E-13
  6.8200E-13
  6.8200E-13
  2.7280E-12
  2.7280E-12
  2.7280E-12
  2.7280E-12
  2.7280E-12
  2.7280E-12
  2.7280E-12
  2.7280E-12
  2.7280E-12
  1.0230E-11
  1.0230E-11
  1.0230E-11
  1.0230E-11
  1.0230E-11
  1.0230E-11
  1.0230E-11
  1.0230E-11
  1.0230E-11
  3.8194E-11
  3.8194E-11
  3.8194E-11
  3.8194E-11
  3.8194E-11
  3.8194E-11
  3.8194E-11
  3.8194E-11
  3.8194E-11
  1.4255E-10
  1.4255E-10
  1.4255E-10
  1.4255E-10
  1.4255E-10
  1.4255E-10
  1.4255E-10
  1.4255E-10
  1.4255E-10
  5.3201E-10
  5.3201E-10
  5.3201E-10
  5.3201E-10
  5.3201E-10
  5.3201E-10
  5.3201E-10
  5.3201E-10
  5.3201E-10
  1.9855E-09
  1.9855E-09
  1.9855E-09
  1.9855E-09
  1.9855E-09
  1.9855E-09
  1.9855E-09
  1.9855E-09
  1.9855E-09
  7.4102E-09
  7.4102E-09
  7.4102E-09
  7.4102E-09
  7.4102E-09
  7.4102E-09
  7.4102E-09
  7.4102E-09
  7.4102E-09
  2.7656E-08
  2.7656E-08
  2.7656E-08
  2.7656E-08
  2.7656E-08
  2.7656E-08
  2.7656E-08
  2.7656E-08
  2.7656E-08
  1.0321E-07
  1.0321E-07
  1.0321E-07
  1.0321E-07
  1.0321E-07
  1.0321E-07
  1.0321E-07
  1.0321E-07
  1.0321E-07
  3.8521E-07
  3.8521E-07
  3.8521E-07
  3.8521E-07
  3.8521E-07
  3.8521E-07
  3.8521E-07
  3.8521E-07
  3.8521E-07
  1.4376E-06
  1.4376E-06
  1.4376E-06
  1.4376E-06
  1.4376E-06
  1.4376E-06
  1.4376E-06
  1.4376E-06
  1.4376E-06
  5.3654E-06
  5.3654E-06
  5.3654E-06
  5.3654E-06
  5.3654E-06
  5.3654E-06
  5.3654E-06
  5.3654E-06
  5.3654E-06
  2.0024E-05
  2.0024E-05
  2.0024E-05
  2.0024E-05
  2.0024E-05
  2.0024E-05
  2.0024E-05
  2.0024E-05
  2.0024E-05
  7.4733E-05
  7.4733E-05
  7.4733E-05
  7.4733E-05
  7.4733E-05
  7.4733E-05
  7.4733E-05
  7.4733E-05
  7.4733E-05
  2.7891E-04
  2.7891E-04
  2.7891E-04
  2.7891E-04
  2.7891E-04
  2.7891E-04
  2.7891E-04
  2.7891E-04
  2.7891E-04
  1.0409E-03
  1.0409E-03
  1.0409E-03
  1.0409E-03
  1.0409E-03
  1.0409E-03
  1.0409E-03
  1.0409E-03
  1.0409E-03
  3.8849E-03
  3.8849E-03
  3.8849E-03
  3.8849E-03
  3.8849E-03
  3.8849E-03
  3.8849E-03
  3.8849E-03
  3.8849E-03
  1.4499E-02
  1.4499E-02
  1.4499E-02
  1.4499E-02
  1.4499E-02
  1.4499E-02
  1.4499E-02
  1.4499E-02
  1.4499E-02
  2.2870E-02
  2.2870E-02
  2.2870E-02
  2.2870E-02
  2.2870E-02
  2.2870E-02
  2.2870E-02
  2.2870E-02
  2.2870E-02
   3.7000E-03
  2.4013E-13
  2.4013E-13
  2.4013E-13
  2.4013E-13
  2.4013E-13
  2.4013E-13
  2.4013E-13
  2.4013E-13
  2.4013E-13
  7.2040E-13
  7.2040E-13
  7.2040E-13
  7.2040E-13
  7.2040E-13
  7.2040E-13
  7.2040E-13
  7.2040E-13
  7.2040E-13
  2.8817E-12
  2.8817E-12
  2.8817E-12
  2.8817E-12
  2.8817E-12
  2.8817E-12
  2.8817E-12
  2.8817E-12
  2.8817E-12
  1.0806E-11
  1.0806E-11
  1.0806E-11
  1.0806E-11
  1.0806E-11
  1.0806E-11
  1.0806E-11
  1.0806E-11
  1.0806E-11
  4.0345E-11
  4.0345E-11
  4.0345E-11
  4.0345E-11
  4.0345E-11
  4.0345E-11
  4.0345E-11
  4.0345E-11
  4.0345E-11
  1.5058E-10
  1.5058E-10
  1.5058E-10
  1.5058E-10
  1.5058E-10
  1.5058E-10
  1.5058E-10
  1.5058E-10
  1.5058E-10
  5.6197E-10
  5.6197E-10
  5.6197E-10
  5.6197E-10
  5.6197E-10
  5.6197E-10
  5.6197E-10
  5.6197E-10
  5.6197E-10
  2.0973E-09
  2.0973E-09
  2.0973E-09
  2.0973E-09
  2.0973E-09
  2.0973E-09
  2.0973E-09
  2.0973E-09
  2.0973E-09
  7.8275E-09
  7.8275E-09
  7.8275E-09
  7.8275E-09
  7.8275E-09
  7.8275E-09
  7.8275E-09
  7.8275E-09
  7.8275E-09
  2.9213E-08
  2.9213E-08
  2.9213E-08
  2.9213E-08
  2.9213E-08
  2.9213E-08
  2.9213E-08
  2.9213E-08
  2.9213E-08
  1.0903E-07
  1.0903E-07
  1.0903E-07
  1.0903E-07
  1.0903E-07
  1.0903E-07
  1.0903E-07
  1.0903E-07
  1.0903E-07
  4.0690E-07
  4.0690E-07
  4.0690E-07
  4.0690E-07
  4.0690E-07
  4.0690E-07
  4.0690E-07
  4.0690E-07
  4.0690E-07
  1.5186E-06
  1.5186E-06
  1.5186E-06
  1.5186E-06
  1.5186E-06
  1.5186E-06
  1.5186E-06
  1.5186E-06
  1.5186E-06
  5.6676E-06
  5.6676E-06
  5.6676E-06
  5.6676E-06
  5.6676E-06
  5.6676E-06
  5.6676E-06
  5.6676E-06
  5.6676E-06
  2.1152E-05
  2.1152E-05
  2.1152E-05
  2.1152E-05
  2.1152E-05
  2.1152E-05
  2.1152E-05
  2.1152E-05
  2.1152E-05
  7.8942E-05
  7.8942E-05
  7.8942E-05
  7.8942E-05
  7.8942E-05
  7.8942E-05
  7.8942E-05
  7.8942E-05
  7.8942E-05
  2.9462E-04
  2.9462E-04
  2.9462E-04
  2.9462E-04
  2.9462E-04
  2.9462E-04
  2.9462E-04
  2.9462E-04
  2.9462E-04
  1.0996E-03
  1.0996E-03
  1.0996E-03
  1.0996E-03
  1.0996E-03
  1.0996E-03
  1.0996E-03
  1.0996E-03
  1.0996E-03
  4.1037E-03
  4.1037E-03
  4.1037E-03
  4.1037E-03
  4.1037E-03
  4.1037E-03
  4.1037E-03
  4.1037E-03
  4.1037E-03
  1.5316E-02
  1.5316E-02
  1.5316E-02
  1.5316E-02
  1.5316E-02
  1.5316E-02
  1.5316E-02
  1.5316E-02
  1.5316E-02
  2.4158E-02
  2.4158E-02
  2.4158E-02
  2.4158E-02
  2.4158E-02
  2.4158E-02
  2.4158E-02
  2.4158E-02
  2.4158E-02
   3.8000E-03
  2.5328E-13
  2.5328E-13
  2.5328E-13
  2.5328E-13
  2.5328E-13
  2.5328E-13
  2.5328E-13
  2.5328E-13
  2.5328E-13
  7.5985E-13
  7.5985E-13
  7.5985E-13
  7.5985E-13
  7.5985E-13
  7.5985E-13
  7.5985E-13
  7.5985E-13
  7.5985E-13
  3.0395E-12
  3.0395E-12
  3.0395E-12
  3.0395E-12
  3.0395E-12
  3.0395E-12
  3.0395E-12
  3.0395E-12
  3.0395E-12
  1.1398E-11
  1.1398E-11
  1.1398E-11
  1.1398E-11
  1.1398E-11
  1.1398E-11
  1.1398E-11
  1.1398E-11
  1.1398E-11
  4.2554E-11
  4.2554E-11
  4.2554E-11
  4.2554E-11
  4.2554E-11
  4.2554E-11
  4.2554E-11
  4.2554E-11
  4.2554E-11
  1.5882E-10
  1.5882E-10
  1.5882E-10
  1.5882E-10
  1.5882E-10
  1.5882E-10
  1.5882E-10
  1.5882E-10
  1.5882E-10
  5.9274E-10
  5.9274E-10
  5.9274E-10
  5.9274E-10
  5.9274E-10
  5.9274E-10
  5.9274E-10
  5.9274E-10
  5.9274E-10
  2.2122E-09
  2.2122E-09
  2.2122E-09
  2.2122E-09
  2.2122E-09
  2.2122E-09
  2.2122E-09
  2.2122E-09
  2.2122E-09
  8.2562E-09
  8.2562E-09
  8.2562E-09
  8.2562E-09
  8.2562E-09
  8.2562E-09
  8.2562E-09
  8.2562E-09
  8.2562E-09
  3.0813E-08
  3.0813E-08
  3.0813E-08
  3.0813E-08
  3.0813E-08
  3.0813E-08
  3.0813E-08
  3.0813E-08
  3.0813E-08
  1.1500E-07
  1.1500E-07
  1.1500E-07
  1.1500E-07
  1.1500E-07
  1.1500E-07
  1.1500E-07
  1.1500E-07
  1.1500E-07
  4.2919E-07
  4.2919E-07
  4.2919E-07
  4.2919E-07
  4.2919E-07
  4.2919E-07
  4.2919E-07
  4.2919E-07
  4.2919E-07
  1.6018E-06
  1.6018E-06
  1.6018E-06
  1.6018E-06
  1.6018E-06
  1.6018E-06
  1.6018E-06
  1.6018E-06
  1.6018E-06
  5.9780E-06
  5.9780E-06
  5.9780E-06
  5.9780E-06
  5.9780E-06
  5.9780E-06
  5.9780E-06
  5.9780E-06
  5.9780E-06
  2.2311E-05
  2.2311E-05
  2.2311E-05
  2.2311E-05
  2.2311E-05
  2.2311E-05
  2.2311E-05
  2.2311E-05
  2.2311E-05
  8.3267E-05
  8.3267E-05
  8.3267E-05
  8.3267E-05
  8.3267E-05
  8.3267E-05
  8.3267E-05
  8.3267E-05
  8.3267E-05
  3.1076E-04
  3.1076E-04
  3.1076E-04
  3.1076E-04
  3.1076E-04
  3.1076E-04
  3.1076E-04
  3.1076E-04
  3.1076E-04
  1.1598E-03
  1.1598E-03
  1.1598E-03
  1.1598E-03
  1.1598E-03
  1.1598E-03
  1.1598E-03
  1.1598E-03
  1.1598E-03
  4.3285E-03
  4.3285E-03
  4.3285E-03
  4.3285E-03
  4.3285E-03
  4.3285E-03
  4.3285E-03
  4.3285E-03
  4.3285E-03
  1.6155E-02
  1.6155E-02
  1.6155E-02
  1.6155E-02
  1.6155E-02
  1.6155E-02
  1.6155E-02
  1.6155E-02
  1.6155E-02
  2.5482E-02
  2.5482E-02
  2.5482E-02
  2.5482E-02
  2.5482E-02
  2.5482E-02
  2.5482E-02
  2.5482E-02
  2.5482E-02
   3.9000E-03
  2.6678E-13
  2.6678E-13
  2.6678E-13
  2.6678E-13
  2.6678E-13
  2.6678E-13
  2.6678E-13
  2.6678E-13
  2.6678E-13
  8.0035E-13
  8.0035E-13
  8.0035E-13
  8.0035E-13
  8.0035E-13
  8.0035E-13
  8.0035E-13
  8.0035E-13
  8.0035E-13
  3.2015E-12
  3.2015E-12
  3.2015E-12
  3.2015E-12
  3.2015E-12
  3.2015E-12
  3.2015E-12
  3.2015E-12
  3.2015E-12
  1.2006E-11
  1.2006E-11
  1.2006E-11
  1.2006E-11
  1.2006E-11
  1.2006E-11
  1.2006E-11
  1.2006E-11
  1.2006E-11
  4.4823E-11
  4.4823E-11
  4.4823E-11
  4.4823E-11
  4.4823E-11
  4.4823E-11
  4.4823E-11
  4.4823E-11
  4.4823E-11
  1.6729E-10
  1.6729E-10
  1.6729E-10
  1.6729E-10
  1.6729E-10
  1.6729E-10
  1.6729E-10
  1.6729E-10
  1.6729E-10
  6.2434E-10
  6.2434E-10
  6.2434E-10
  6.2434E-10
  6.2434E-10
  6.2434E-10
  6.2434E-10
  6.2434E-10
  6.2434E-10
  2.3301E-09
  2.3301E-09
  2.3301E-09
  2.3301E-09
  2.3301E-09
  2.3301E-09
  2.3301E-09
  2.3301E-09
  2.3301E-09
  8.6963E-09
  8.6963E-09
  8.6963E-09
  8.6963E-09
  8.6963E-09
  8.6963E-09
  8.6963E-09
  8.6963E-09
  8.6963E-09
  3.2456E-08
  3.2456E-08
  3.2456E-08
  3.2456E-08
  3.2456E-08
  3.2456E-08
  3.2456E-08
  3.2456E-08
  3.2456E-08
  1.2113E-07
  1.2113E-07
  1.2113E-07
  1.2113E-07
  1.2113E-07
  1.2113E-07
  1.2113E-07
  1.2113E-07
  1.2113E-07
  4.5207E-07
  4.5207E-07
  4.5207E-07
  4.5207E-07
  4.5207E-07
  4.5207E-07
  4.5207E-07
  4.5207E-07
  4.5207E-07
  1.6872E-06
  1.6872E-06
  1.6872E-06
  1.6872E-06
  1.6872E-06
  1.6872E-06
  1.6872E-06
  1.6872E-06
  1.6872E-06
  6.2968E-06
  6.2968E-06
  6.2968E-06
  6.2968E-06
  6.2968E-06
  6.2968E-06
  6.2968E-06
  6.2968E-06
  6.2968E-06
  2.3500E-05
  2.3500E-05
  2.3500E-05
  2.3500E-05
  2.3500E-05
  2.3500E-05
  2.3500E-05
  2.3500E-05
  2.3500E-05
  8.7706E-05
  8.7706E-05
  8.7706E-05
  8.7706E-05
  8.7706E-05
  8.7706E-05
  8.7706E-05
  8.7706E-05
  8.7706E-05
  3.2733E-04
  3.2733E-04
  3.2733E-04
  3.2733E-04
  3.2733E-04
  3.2733E-04
  3.2733E-04
  3.2733E-04
  3.2733E-04
  1.2216E-03
  1.2216E-03
  1.2216E-03
  1.2216E-03
  1.2216E-03
  1.2216E-03
  1.2216E-03
  1.2216E-03
  1.2216E-03
  4.5593E-03
  4.5593E-03
  4.5593E-03
  4.5593E-03
  4.5593E-03
  4.5593E-03
  4.5593E-03
  4.5593E-03
  4.5593E-03
  1.7016E-02
  1.7016E-02
  1.7016E-02
  1.7016E-02
  1.7016E-02
  1.7016E-02
  1.7016E-02
  1.7016E-02
  1.7016E-02
  2.6840E-02
  2.6840E-02
  2.6840E-02
  2.6840E-02
  2.6840E-02
  2.6840E-02
  2.6840E-02
  2.6840E-02
  2.6840E-02
   4.0000E-03
  2.8063E-13
  2.8063E-13
  2.8063E-13
  2.8063E-13
  2.8063E-13
  2.8063E-13
  2.8063E-13
  2.8063E-13
  2.8063E-13
  8.4191E-13
  8.4191E-13
  8.4191E-13
  8.4191E-13
  8.4191E-13
  8.4191E-13
  8.4191E-13
  8.4191E-13
  8.4191E-13
  3.3677E-12
  3.3677E-12
  3.3677E-12
  3.3677E-12
  3.3677E-12
  3.3677E-12
  3.3677E-12
  3.3677E-12
  3.3677E-12
  1.2629E-11
  1.2629E-11
  1.2629E-11
  1.2629E-11
  1.2629E-11
  1.2629E-11
  1.2629E-11
  1.2629E-11
  1.2629E-11
  4.7150E-11
  4.7150E-11
  4.7150E-11
  4.7150E-11
  4.7150E-11
  4.7150E-11
  4.7150E-11
  4.7150E-11
  4.7150E-11
  1.7597E-10
  1.7597E-10
  1.7597E-10
  1.7597E-10
  1.7597E-10
  1.7597E-10
  1.7597E-10
  1.7597E-10
  1.7597E-10
  6.5676E-10
  6.5676E-10
  6.5676E-10
  6.5676E-10
  6.5676E-10
  6.5676E-10
  6.5676E-10
  6.5676E-10
  6.5676E-10
  2.4511E-09
  2.4511E-09
  2.4511E-09
  2.4511E-09
  2.4511E-09
  2.4511E-09
  2.4511E-09
  2.4511E-09
  2.4511E-09
  9.1479E-09
  9.1479E-09
  9.1479E-09
  9.1479E-09
  9.1479E-09
  9.1479E-09
  9.1479E-09
  9.1479E-09
  9.1479E-09
  3.4141E-08
  3.4141E-08
  3.4141E-08
  3.4141E-08
  3.4141E-08
  3.4141E-08
  3.4141E-08
  3.4141E-08
  3.4141E-08
  1.2742E-07
  1.2742E-07
  1.2742E-07
  1.2742E-07
  1.2742E-07
  1.2742E-07
  1.2742E-07
  1.2742E-07
  1.2742E-07
  4.7555E-07
  4.7555E-07
  4.7555E-07
  4.7555E-07
  4.7555E-07
  4.7555E-07
  4.7555E-07
  4.7555E-07
  4.7555E-07
  1.7748E-06
  1.7748E-06
  1.7748E-06
  1.7748E-06
  1.7748E-06
  1.7748E-06
  1.7748E-06
  1.7748E-06
  1.7748E-06
  6.6238E-06
  6.6238E-06
  6.6238E-06
  6.6238E-06
  6.6238E-06
  6.6238E-06
  6.6238E-06
  6.6238E-06
  6.6238E-06
  2.4721E-05
  2.4721E-05
  2.4721E-05
  2.4721E-05
  2.4721E-05
  2.4721E-05
  2.4721E-05
  2.4721E-05
  2.4721E-05
  9.2261E-05
  9.2261E-05
  9.2261E-05
  9.2261E-05
  9.2261E-05
  9.2261E-05
  9.2261E-05
  9.2261E-05
  9.2261E-05
  3.4433E-04
  3.4433E-04
  3.4433E-04
  3.4433E-04
  3.4433E-04
  3.4433E-04
  3.4433E-04
  3.4433E-04
  3.4433E-04
  1.2851E-03
  1.2851E-03
  1.2851E-03
  1.2851E-03
  1.2851E-03
  1.2851E-03
  1.2851E-03
  1.2851E-03
  1.2851E-03
  4.7961E-03
  4.7961E-03
  4.7961E-03
  4.7961E-03
  4.7961E-03
  4.7961E-03
  4.7961E-03
  4.7961E-03
  4.7961E-03
  1.7900E-02
  1.7900E-02
  1.7900E-02
  1.7900E-02
  1.7900E-02
  1.7900E-02
  1.7900E-02
  1.7900E-02
  1.7900E-02
  2.8234E-02
  2.8234E-02
  2.8234E-02
  2.8234E-02
  2.8234E-02
  2.8234E-02
  2.8234E-02
  2.8234E-02
  2.8234E-02
   4.1000E-03
  2.9483E-13
  2.9483E-13
  2.9483E-13
  2.9483E-13
  2.9483E-13
  2.9483E-13
  2.9483E-13
  2.9483E-13
  2.9483E-13
  8.8451E-13
  8.8451E-13
  8.8451E-13
  8.8451E-13
  8.8451E-13
  8.8451E-13
  8.8451E-13
  8.8451E-13
  8.8451E-13
  3.5381E-12
  3.5381E-12
  3.5381E-12
  3.5381E-12
  3.5381E-12
  3.5381E-12
  3.5381E-12
  3.5381E-12
  3.5381E-12
  1.3268E-11
  1.3268E-11
  1.3268E-11
  1.3268E-11
  1.3268E-11
  1.3268E-11
  1.3268E-11
  1.3268E-11
  1.3268E-11
  4.9536E-11
  4.9536E-11
  4.9536E-11
  4.9536E-11
  4.9536E-11
  4.9536E-11
  4.9536E-11
  4.9536E-11
  4.9536E-11
  1.8488E-10
  1.8488E-10
  1.8488E-10
  1.8488E-10
  1.8488E-10
  1.8488E-10
  1.8488E-10
  1.8488E-10
  1.8488E-10
  6.9000E-10
  6.9000E-10
  6.9000E-10
  6.9000E-10
  6.9000E-10
  6.9000E-10
  6.9000E-10
  6.9000E-10
  6.9000E-10
  2.5752E-09
  2.5752E-09
  2.5752E-09
  2.5752E-09
  2.5752E-09
  2.5752E-09
  2.5752E-09
  2.5752E-09
  2.5752E-09
  9.6109E-09
  9.6109E-09
  9.6109E-09
  9.6109E-09
  9.6109E-09
  9.6109E-09
  9.6109E-09
  9.6109E-09
  9.6109E-09
  3.5869E-08
  3.5869E-08
  3.5869E-08
  3.5869E-08
  3.5869E-08
  3.5869E-08
  3.5869E-08
  3.5869E-08
  3.5869E-08
  1.3387E-07
  1.3387E-07
  1.3387E-07
  1.3387E-07
  1.3387E-07
  1.3387E-07
  1.3387E-07
  1.3387E-07
  1.3387E-07
  4.9961E-07
  4.9961E-07
  4.9961E-07
  4.9961E-07
  4.9961E-07
  4.9961E-07
  4.9961E-07
  4.9961E-07
  4.9961E-07
  1.8646E-06
  1.8646E-06
  1.8646E-06
  1.8646E-06
  1.8646E-06
  1.8646E-06
  1.8646E-06
  1.8646E-06
  1.8646E-06
  6.9591E-06
  6.9591E-06
  6.9591E-06
  6.9591E-06
  6.9591E-06
  6.9591E-06
  6.9591E-06
  6.9591E-06
  6.9591E-06
  2.5972E-05
  2.5972E-05
  2.5972E-05
  2.5972E-05
  2.5972E-05
  2.5972E-05
  2.5972E-05
  2.5972E-05
  2.5972E-05
  9.6932E-05
  9.6932E-05
  9.6932E-05
  9.6932E-05
  9.6932E-05
  9.6932E-05
  9.6932E-05
  9.6932E-05
  9.6932E-05
  3.6176E-04
  3.6176E-04
  3.6176E-04
  3.6176E-04
  3.6176E-04
  3.6176E-04
  3.6176E-04
  3.6176E-04
  3.6176E-04
  1.3501E-03
  1.3501E-03
  1.3501E-03
  1.3501E-03
  1.3501E-03
  1.3501E-03
  1.3501E-03
  1.3501E-03
  1.3501E-03
  5.0389E-03
  5.0389E-03
  5.0389E-03
  5.0389E-03
  5.0389E-03
  5.0389E-03
  5.0389E-03
  5.0389E-03
  5.0389E-03
  1.8806E-02
  1.8806E-02
  1.8806E-02
  1.8806E-02
  1.8806E-02
  1.8806E-02
  1.8806E-02
  1.8806E-02
  1.8806E-02
  2.9664E-02
  2.9664E-02
  2.9664E-02
  2.9664E-02
  2.9664E-02
  2.9664E-02
  2.9664E-02
  2.9664E-02
  2.9664E-02
   4.2000E-03
  3.0938E-13
  3.0938E-13
  3.0938E-13
  3.0938E-13
  3.0938E-13
  3.0938E-13
  3.0938E-13
  3.0938E-13
  3.0938E-13
  9.2816E-13
  9.2816E-13
  9.2816E-13
  9.2816E-13
  9.2816E-13
  9.2816E-13
  9.2816E-13
  9.2816E-13
  9.2816E-13
  3.7128E-12
  3.7128E-12
  3.7128E-12
  3.7128E-12
  3.7128E-12
  3.7128E-12
  3.7128E-12
  3.7128E-12
  3.7128E-12
  1.3923E-11
  1.3923E-11
  1.3923E-11
  1.3923E-11
  1.3923E-11
  1.3923E-11
  1.3923E-11
  1.3923E-11
  1.3923E-11
  5.1981E-11
  5.1981E-11
  5.1981E-11
  5.1981E-11
  5.1981E-11
  5.1981E-11
  5.1981E-11
  5.1981E-11
  5.1981E-11
  1.9401E-10
  1.9401E-10
  1.9401E-10
  1.9401E-10
  1.9401E-10
  1.9401E-10
  1.9401E-10
  1.9401E-10
  1.9401E-10
  7.2406E-10
  7.2406E-10
  7.2406E-10
  7.2406E-10
  7.2406E-10
  7.2406E-10
  7.2406E-10
  7.2406E-10
  7.2406E-10
  2.7023E-09
  2.7023E-09
  2.7023E-09
  2.7023E-09
  2.7023E-09
  2.7023E-09
  2.7023E-09
  2.7023E-09
  2.7023E-09
  1.0085E-08
  1.0085E-08
  1.0085E-08
  1.0085E-08
  1.0085E-08
  1.0085E-08
  1.0085E-08
  1.0085E-08
  1.0085E-08
  3.7640E-08
  3.7640E-08
  3.7640E-08
  3.7640E-08
  3.7640E-08
  3.7640E-08
  3.7640E-08
  3.7640E-08
  3.7640E-08
  1.4048E-07
  1.4048E-07
  1.4048E-07
  1.4048E-07
  1.4048E-07
  1.4048E-07
  1.4048E-07
  1.4048E-07
  1.4048E-07
  5.2428E-07
  5.2428E-07
  5.2428E-07
  5.2428E-07
  5.2428E-07
  5.2428E-07
  5.2428E-07
  5.2428E-07
  5.2428E-07
  1.9567E-06
  1.9567E-06
  1.9567E-06
  1.9567E-06
  1.9567E-06
  1.9567E-06
  1.9567E-06
  1.9567E-06
  1.9567E-06
  7.3026E-06
  7.3026E-06
  7.3026E-06
  7.3026E-06
  7.3026E-06
  7.3026E-06
  7.3026E-06
  7.3026E-06
  7.3026E-06
  2.7254E-05
  2.7254E-05
  2.7254E-05
  2.7254E-05
  2.7254E-05
  2.7254E-05
  2.7254E-05
  2.7254E-05
  2.7254E-05
  1.0172E-04
  1.0172E-04
  1.0172E-04
  1.0172E-04
  1.0172E-04
  1.0172E-04
  1.0172E-04
  1.0172E-04
  1.0172E-04
  3.7962E-04
  3.7962E-04
  3.7962E-04
  3.7962E-04
  3.7962E-04
  3.7962E-04
  3.7962E-04
  3.7962E-04
  3.7962E-04
  1.4168E-03
  1.4168E-03
  1.4168E-03
  1.4168E-03
  1.4168E-03
  1.4168E-03
  1.4168E-03
  1.4168E-03
  1.4168E-03
  5.2877E-03
  5.2877E-03
  5.2877E-03
  5.2877E-03
  5.2877E-03
  5.2877E-03
  5.2877E-03
  5.2877E-03
  5.2877E-03
  1.9734E-02
  1.9734E-02
  1.9734E-02
  1.9734E-02
  1.9734E-02
  1.9734E-02
  1.9734E-02
  1.9734E-02
  1.9734E-02
  3.1128E-02
  3.1128E-02
  3.1128E-02
  3.1128E-02
  3.1128E-02
  3.1128E-02
  3.1128E-02
  3.1128E-02
  3.1128E-02
   4.3000E-03
  3.2428E-13
  3.2428E-13
  3.2428E-13
  3.2428E-13
  3.2428E-13
  3.2428E-13
  3.2428E-13
  3.2428E-13
  3.2428E-13
  9.7287E-13
  9.7287E-13
  9.7287E-13
  9.7287E-13
  9.7287E-13
  9.7287E-13
  9.7287E-13
  9.7287E-13
  9.7287E-13
  3.8916E-12
  3.8916E-12
  3.8916E-12
  3.8916E-12
  3.8916E-12
  3.8916E-12
  3.8916E-12
  3.8916E-12
  3.8916E-12
  1.4594E-11
  1.4594E-11
  1.4594E-11
  1.4594E-11
  1.4594E-11
  1.4594E-11
  1.4594E-11
  1.4594E-11
  1.4594E-11
  5.4485E-11
  5.4485E-11
  5.4485E-11
  5.4485E-11
  5.4485E-11
  5.4485E-11
  5.4485E-11
  5.4485E-11
  5.4485E-11
  2.0335E-10
  2.0335E-10
  2.0335E-10
  2.0335E-10
  2.0335E-10
  2.0335E-10
  2.0335E-10
  2.0335E-10
  2.0335E-10
  7.5893E-10
  7.5893E-10
  7.5893E-10
  7.5893E-10
  7.5893E-10
  7.5893E-10
  7.5893E-10
  7.5893E-10
  7.5893E-10
  2.8325E-09
  2.8325E-09
  2.8325E-09
  2.8325E-09
  2.8325E-09
  2.8325E-09
  2.8325E-09
  2.8325E-09
  2.8325E-09
  1.0571E-08
  1.0571E-08
  1.0571E-08
  1.0571E-08
  1.0571E-08
  1.0571E-08
  1.0571E-08
  1.0571E-08
  1.0571E-08
  3.9453E-08
  3.9453E-08
  3.9453E-08
  3.9453E-08
  3.9453E-08
  3.9453E-08
  3.9453E-08
  3.9453E-08
  3.9453E-08
  1.4724E-07
  1.4724E-07
  1.4724E-07
  1.4724E-07
  1.4724E-07
  1.4724E-07
  1.4724E-07
  1.4724E-07
  1.4724E-07
  5.4954E-07
  5.4954E-07
  5.4954E-07
  5.4954E-07
  5.4954E-07
  5.4954E-07
  5.4954E-07
  5.4954E-07
  5.4954E-07
  2.0509E-06
  2.0509E-06
  2.0509E-06
  2.0509E-06
  2.0509E-06
  2.0509E-06
  2.0509E-06
  2.0509E-06
  2.0509E-06
  7.6544E-06
  7.6544E-06
  7.6544E-06
  7.6544E-06
  7.6544E-06
  7.6544E-06
  7.6544E-06
  7.6544E-06
  7.6544E-06
  2.8567E-05
  2.8567E-05
  2.8567E-05
  2.8567E-05
  2.8567E-05
  2.8567E-05
  2.8567E-05
  2.8567E-05
  2.8567E-05
  1.0662E-04
  1.0662E-04
  1.0662E-04
  1.0662E-04
  1.0662E-04
  1.0662E-04
  1.0662E-04
  1.0662E-04
  1.0662E-04
  3.9791E-04
  3.9791E-04
  3.9791E-04
  3.9791E-04
  3.9791E-04
  3.9791E-04
  3.9791E-04
  3.9791E-04
  3.9791E-04
  1.4851E-03
  1.4851E-03
  1.4851E-03
  1.4851E-03
  1.4851E-03
  1.4851E-03
  1.4851E-03
  1.4851E-03
  1.4851E-03
  5.5425E-03
  5.5425E-03
  5.5425E-03
  5.5425E-03
  5.5425E-03
  5.5425E-03
  5.5425E-03
  5.5425E-03
  5.5425E-03
  2.0685E-02
  2.0685E-02
  2.0685E-02
  2.0685E-02
  2.0685E-02
  2.0685E-02
  2.0685E-02
  2.0685E-02
  2.0685E-02
  3.2628E-02
  3.2628E-02
  3.2628E-02
  3.2628E-02
  3.2628E-02
  3.2628E-02
  3.2628E-02
  3.2628E-02
  3.2628E-02
   4.4000E-03
  3.3953E-13
  3.3953E-13
  3.3953E-13
  3.3953E-13
  3.3953E-13
  3.3953E-13
  3.3953E-13
  3.3953E-13
  3.3953E-13
  1.0186E-12
  1.0186E-12
  1.0186E-12
  1.0186E-12
  1.0186E-12
  1.0186E-12
  1.0186E-12
  1.0186E-12
  1.0186E-12
  4.0746E-12
  4.0746E-12
  4.0746E-12
  4.0746E-12
  4.0746E-12
  4.0746E-12
  4.0746E-12
  4.0746E-12
  4.0746E-12
  1.5280E-11
  1.5280E-11
  1.5280E-11
  1.5280E-11
  1.5280E-11
  1.5280E-11
  1.5280E-11
  1.5280E-11
  1.5280E-11
  5.7047E-11
  5.7047E-11
  5.7047E-11
  5.7047E-11
  5.7047E-11
  5.7047E-11
  5.7047E-11
  5.7047E-11
  5.7047E-11
  2.1291E-10
  2.1291E-10
  2.1291E-10
  2.1291E-10
  2.1291E-10
  2.1291E-10
  2.1291E-10
  2.1291E-10
  2.1291E-10
  7.9463E-10
  7.9463E-10
  7.9463E-10
  7.9463E-10
  7.9463E-10
  7.9463E-10
  7.9463E-10
  7.9463E-10
  7.9463E-10
  2.9657E-09
  2.9657E-09
  2.9657E-09
  2.9657E-09
  2.9657E-09
  2.9657E-09
  2.9657E-09
  2.9657E-09
  2.9657E-09
  1.1068E-08
  1.1068E-08
  1.1068E-08
  1.1068E-08
  1.1068E-08
  1.1068E-08
  1.1068E-08
  1.1068E-08
  1.1068E-08
  4.1309E-08
  4.1309E-08
  4.1309E-08
  4.1309E-08
  4.1309E-08
  4.1309E-08
  4.1309E-08
  4.1309E-08
  4.1309E-08
  1.5417E-07
  1.5417E-07
  1.5417E-07
  1.5417E-07
  1.5417E-07
  1.5417E-07
  1.5417E-07
  1.5417E-07
  1.5417E-07
  5.7539E-07
  5.7539E-07
  5.7539E-07
  5.7539E-07
  5.7539E-07
  5.7539E-07
  5.7539E-07
  5.7539E-07
  5.7539E-07
  2.1474E-06
  2.1474E-06
  2.1474E-06
  2.1474E-06
  2.1474E-06
  2.1474E-06
  2.1474E-06
  2.1474E-06
  2.1474E-06
  8.0145E-06
  8.0145E-06
  8.0145E-06
  8.0145E-06
  8.0145E-06
  8.0145E-06
  8.0145E-06
  8.0145E-06
  8.0145E-06
  2.9911E-05
  2.9911E-05
  2.9911E-05
  2.9911E-05
  2.9911E-05
  2.9911E-05
  2.9911E-05
  2.9911E-05
  2.9911E-05
  1.1163E-04
  1.1163E-04
  1.1163E-04
  1.1163E-04
  1.1163E-04
  1.1163E-04
  1.1163E-04
  1.1163E-04
  1.1163E-04
  4.1663E-04
  4.1663E-04
  4.1663E-04
  4.1663E-04
  4.1663E-04
  4.1663E-04
  4.1663E-04
  4.1663E-04
  4.1663E-04
  1.5549E-03
  1.5549E-03
  1.5549E-03
  1.5549E-03
  1.5549E-03
  1.5549E-03
  1.5549E-03
  1.5549E-03
  1.5549E-03
  5.8033E-03
  5.8033E-03
  5.8033E-03
  5.8033E-03
  5.8033E-03
  5.8033E-03
  5.8033E-03
  5.8033E-03
  5.8033E-03
  2.1659E-02
  2.1659E-02
  2.1659E-02
  2.1659E-02
  2.1659E-02
  2.1659E-02
  2.1659E-02
  2.1659E-02
  2.1659E-02
  3.4163E-02
  3.4163E-02
  3.4163E-02
  3.4163E-02
  3.4163E-02
  3.4163E-02
  3.4163E-02
  3.4163E-02
  3.4163E-02
   4.5000E-03
  3.5513E-13
  3.5513E-13
  3.5513E-13
  3.5513E-13
  3.5513E-13
  3.5513E-13
  3.5513E-13
  3.5513E-13
  3.5513E-13
  1.0654E-12
  1.0654E-12
  1.0654E-12
  1.0654E-12
  1.0654E-12
  1.0654E-12
  1.0654E-12
  1.0654E-12
  1.0654E-12
  4.2618E-12
  4.2618E-12
  4.2618E-12
  4.2618E-12
  4.2618E-12
  4.2618E-12
  4.2618E-12
  4.2618E-12
  4.2618E-12
  1.5982E-11
  1.5982E-11
  1.5982E-11
  1.5982E-11
  1.5982E-11
  1.5982E-11
  1.5982E-11
  1.5982E-11
  1.5982E-11
  5.9669E-11
  5.9669E-11
  5.9669E-11
  5.9669E-11
  5.9669E-11
  5.9669E-11
  5.9669E-11
  5.9669E-11
  5.9669E-11
  2.2270E-10
  2.2270E-10
  2.2270E-10
  2.2270E-10
  2.2270E-10
  2.2270E-10
  2.2270E-10
  2.2270E-10
  2.2270E-10
  8.3115E-10
  8.3115E-10
  8.3115E-10
  8.3115E-10
  8.3115E-10
  8.3115E-10
  8.3115E-10
  8.3115E-10
  8.3115E-10
  3.1020E-09
  3.1020E-09
  3.1020E-09
  3.1020E-09
  3.1020E-09
  3.1020E-09
  3.1020E-09
  3.1020E-09
  3.1020E-09
  1.1577E-08
  1.1577E-08
  1.1577E-08
  1.1577E-08
  1.1577E-08
  1.1577E-08
  1.1577E-08
  1.1577E-08
  1.1577E-08
  4.3207E-08
  4.3207E-08
  4.3207E-08
  4.3207E-08
  4.3207E-08
  4.3207E-08
  4.3207E-08
  4.3207E-08
  4.3207E-08
  1.6126E-07
  1.6126E-07
  1.6126E-07
  1.6126E-07
  1.6126E-07
  1.6126E-07
  1.6126E-07
  1.6126E-07
  1.6126E-07
  6.0183E-07
  6.0183E-07
  6.0183E-07
  6.0183E-07
  6.0183E-07
  6.0183E-07
  6.0183E-07
  6.0183E-07
  6.0183E-07
  2.2461E-06
  2.2461E-06
  2.2461E-06
  2.2461E-06
  2.2461E-06
  2.2461E-06
  2.2461E-06
  2.2461E-06
  2.2461E-06
  8.3829E-06
  8.3829E-06
  8.3829E-06
  8.3829E-06
  8.3829E-06
  8.3829E-06
  8.3829E-06
  8.3829E-06
  8.3829E-06
  3.1286E-05
  3.1286E-05
  3.1286E-05
  3.1286E-05
  3.1286E-05
  3.1286E-05
  3.1286E-05
  3.1286E-05
  3.1286E-05
  1.1676E-04
  1.1676E-04
  1.1676E-04
  1.1676E-04
  1.1676E-04
  1.1676E-04
  1.1676E-04
  1.1676E-04
  1.1676E-04
  4.3578E-04
  4.3578E-04
  4.3578E-04
  4.3578E-04
  4.3578E-04
  4.3578E-04
  4.3578E-04
  4.3578E-04
  4.3578E-04
  1.6264E-03
  1.6264E-03
  1.6264E-03
  1.6264E-03
  1.6264E-03
  1.6264E-03
  1.6264E-03
  1.6264E-03
  1.6264E-03
  6.0700E-03
  6.0700E-03
  6.0700E-03
  6.0700E-03
  6.0700E-03
  6.0700E-03
  6.0700E-03
  6.0700E-03
  6.0700E-03
  2.2654E-02
  2.2654E-02
  2.2654E-02
  2.2654E-02
  2.2654E-02
  2.2654E-02
  2.2654E-02
  2.2654E-02
  2.2654E-02
  3.5734E-02
  3.5734E-02
  3.5734E-02
  3.5734E-02
  3.5734E-02
  3.5734E-02
  3.5734E-02
  3.5734E-02
  3.5734E-02
   4.6000E-03
  3.7107E-13
  3.7107E-13
  3.7107E-13
  3.7107E-13
  3.7107E-13
  3.7107E-13
  3.7107E-13
  3.7107E-13
  3.7107E-13
  1.1133E-12
  1.1133E-12
  1.1133E-12
  1.1133E-12
  1.1133E-12
  1.1133E-12
  1.1133E-12
  1.1133E-12
  1.1133E-12
  4.4532E-12
  4.4532E-12
  4.4532E-12
  4.4532E-12
  4.4532E-12
  4.4532E-12
  4.4532E-12
  4.4532E-12
  4.4532E-12
  1.6700E-11
  1.6700E-11
  1.6700E-11
  1.6700E-11
  1.6700E-11
  1.6700E-11
  1.6700E-11
  1.6700E-11
  1.6700E-11
  6.2349E-11
  6.2349E-11
  6.2349E-11
  6.2349E-11
  6.2349E-11
  6.2349E-11
  6.2349E-11
  6.2349E-11
  6.2349E-11
  2.3270E-10
  2.3270E-10
  2.3270E-10
  2.3270E-10
  2.3270E-10
  2.3270E-10
  2.3270E-10
  2.3270E-10
  2.3270E-10
  8.6848E-10
  8.6848E-10
  8.6848E-10
  8.6848E-10
  8.6848E-10
  8.6848E-10
  8.6848E-10
  8.6848E-10
  8.6848E-10
  3.2413E-09
  3.2413E-09
  3.2413E-09
  3.2413E-09
  3.2413E-09
  3.2413E-09
  3.2413E-09
  3.2413E-09
  3.2413E-09
  1.2097E-08
  1.2097E-08
  1.2097E-08
  1.2097E-08
  1.2097E-08
  1.2097E-08
  1.2097E-08
  1.2097E-08
  1.2097E-08
  4.5148E-08
  4.5148E-08
  4.5148E-08
  4.5148E-08
  4.5148E-08
  4.5148E-08
  4.5148E-08
  4.5148E-08
  4.5148E-08
  1.6850E-07
  1.6850E-07
  1.6850E-07
  1.6850E-07
  1.6850E-07
  1.6850E-07
  1.6850E-07
  1.6850E-07
  1.6850E-07
  6.2887E-07
  6.2887E-07
  6.2887E-07
  6.2887E-07
  6.2887E-07
  6.2887E-07
  6.2887E-07
  6.2887E-07
  6.2887E-07
  2.3470E-06
  2.3470E-06
  2.3470E-06
  2.3470E-06
  2.3470E-06
  2.3470E-06
  2.3470E-06
  2.3470E-06
  2.3470E-06
  8.7595E-06
  8.7595E-06
  8.7595E-06
  8.7595E-06
  8.7595E-06
  8.7595E-06
  8.7595E-06
  8.7595E-06
  8.7595E-06
  3.2692E-05
  3.2692E-05
  3.2692E-05
  3.2692E-05
  3.2692E-05
  3.2692E-05
  3.2692E-05
  3.2692E-05
  3.2692E-05
  1.2201E-04
  1.2201E-04
  1.2201E-04
  1.2201E-04
  1.2201E-04
  1.2201E-04
  1.2201E-04
  1.2201E-04
  1.2201E-04
  4.5537E-04
  4.5537E-04
  4.5537E-04
  4.5537E-04
  4.5537E-04
  4.5537E-04
  4.5537E-04
  4.5537E-04
  4.5537E-04
  1.6995E-03
  1.6995E-03
  1.6995E-03
  1.6995E-03
  1.6995E-03
  1.6995E-03
  1.6995E-03
  1.6995E-03
  1.6995E-03
  6.3428E-03
  6.3428E-03
  6.3428E-03
  6.3428E-03
  6.3428E-03
  6.3428E-03
  6.3428E-03
  6.3428E-03
  6.3428E-03
  2.3672E-02
  2.3672E-02
  2.3672E-02
  2.3672E-02
  2.3672E-02
  2.3672E-02
  2.3672E-02
  2.3672E-02
  2.3672E-02
  3.7340E-02
  3.7340E-02
  3.7340E-02
  3.7340E-02
  3.7340E-02
  3.7340E-02
  3.7340E-02
  3.7340E-02
  3.7340E-02
   4.7000E-03
  3.8737E-13
  3.8737E-13
  3.8737E-13
  3.8737E-13
  3.8737E-13
  3.8737E-13
  3.8737E-13
  3.8737E-13
  3.8737E-13
  1.1622E-12
  1.1622E-12
  1.1622E-12
  1.1622E-12
  1.1622E-12
  1.1622E-12
  1.1622E-12
  1.1622E-12
  1.1622E-12
  4.6489E-12
  4.6489E-12
  4.6489E-12
  4.6489E-12
  4.6489E-12
  4.6489E-12
  4.6489E-12
  4.6489E-12
  4.6489E-12
  1.7434E-11
  1.7434E-11
  1.7434E-11
  1.7434E-11
  1.7434E-11
  1.7434E-11
  1.7434E-11
  1.7434E-11
  1.7434E-11
  6.5088E-11
  6.5088E-11
  6.5088E-11
  6.5088E-11
  6.5088E-11
  6.5088E-11
  6.5088E-11
  6.5088E-11
  6.5088E-11
  2.4293E-10
  2.4293E-10
  2.4293E-10
  2.4293E-10
  2.4293E-10
  2.4293E-10
  2.4293E-10
  2.4293E-10
  2.4293E-10
  9.0664E-10
  9.0664E-10
  9.0664E-10
  9.0664E-10
  9.0664E-10
  9.0664E-10
  9.0664E-10
  9.0664E-10
  9.0664E-10
  3.3837E-09
  3.3837E-09
  3.3837E-09
  3.3837E-09
  3.3837E-09
  3.3837E-09
  3.3837E-09
  3.3837E-09
  3.3837E-09
  1.2629E-08
  1.2629E-08
  1.2629E-08
  1.2629E-08
  1.2629E-08
  1.2629E-08
  1.2629E-08
  1.2629E-08
  1.2629E-08
  4.7132E-08
  4.7132E-08
  4.7132E-08
  4.7132E-08
  4.7132E-08
  4.7132E-08
  4.7132E-08
  4.7132E-08
  4.7132E-08
  1.7590E-07
  1.7590E-07
  1.7590E-07
  1.7590E-07
  1.7590E-07
  1.7590E-07
  1.7590E-07
  1.7590E-07
  1.7590E-07
  6.5650E-07
  6.5650E-07
  6.5650E-07
  6.5650E-07
  6.5650E-07
  6.5650E-07
  6.5650E-07
  6.5650E-07
  6.5650E-07
  2.4502E-06
  2.4502E-06
  2.4502E-06
  2.4502E-06
  2.4502E-06
  2.4502E-06
  2.4502E-06
  2.4502E-06
  2.4502E-06
  9.1444E-06
  9.1444E-06
  9.1444E-06
  9.1444E-06
  9.1444E-06
  9.1444E-06
  9.1444E-06
  9.1444E-06
  9.1444E-06
  3.4129E-05
  3.4129E-05
  3.4129E-05
  3.4129E-05
  3.4129E-05
  3.4129E-05
  3.4129E-05
  3.4129E-05
  3.4129E-05
  1.2737E-04
  1.2737E-04
  1.2737E-04
  1.2737E-04
  1.2737E-04
  1.2737E-04
  1.2737E-04
  1.2737E-04
  1.2737E-04
  4.7538E-04
  4.7538E-04
  4.7538E-04
  4.7538E-04
  4.7538E-04
  4.7538E-04
  4.7538E-04
  4.7538E-04
  4.7538E-04
  1.7742E-03
  1.7742E-03
  1.7742E-03
  1.7742E-03
  1.7742E-03
  1.7742E-03
  1.7742E-03
  1.7742E-03
  1.7742E-03
  6.6215E-03
  6.6215E-03
  6.6215E-03
  6.6215E-03
  6.6215E-03
  6.6215E-03
  6.6215E-03
  6.6215E-03
  6.6215E-03
  2.4713E-02
  2.4713E-02
  2.4713E-02
  2.4713E-02
  2.4713E-02
  2.4713E-02
  2.4713E-02
  2.4713E-02
  2.4713E-02
  3.8981E-02
  3.8981E-02
  3.8981E-02
  3.8981E-02
  3.8981E-02
  3.8981E-02
  3.8981E-02
  3.8981E-02
  3.8981E-02
   4.8000E-03
  4.0402E-13
  4.0402E-13
  4.0402E-13
  4.0402E-13
  4.0402E-13
  4.0402E-13
  4.0402E-13
  4.0402E-13
  4.0402E-13
  1.2121E-12
  1.2121E-12
  1.2121E-12
  1.2121E-12
  1.2121E-12
  1.2121E-12
  1.2121E-12
  1.2121E-12
  1.2121E-12
  4.8487E-12
  4.8487E-12
  4.8487E-12
  4.8487E-12
  4.8487E-12
  4.8487E-12
  4.8487E-12
  4.8487E-12
  4.8487E-12
  1.8183E-11
  1.8183E-11
  1.8183E-11
  1.8183E-11
  1.8183E-11
  1.8183E-11
  1.8183E-11
  1.8183E-11
  1.8183E-11
  6.7886E-11
  6.7886E-11
  6.7886E-11
  6.7886E-11
  6.7886E-11
  6.7886E-11
  6.7886E-11
  6.7886E-11
  6.7886E-11
  2.5337E-10
  2.5337E-10
  2.5337E-10
  2.5337E-10
  2.5337E-10
  2.5337E-10
  2.5337E-10
  2.5337E-10
  2.5337E-10
  9.4561E-10
  9.4561E-10
  9.4561E-10
  9.4561E-10
  9.4561E-10
  9.4561E-10
  9.4561E-10
  9.4561E-10
  9.4561E-10
  3.5292E-09
  3.5292E-09
  3.5292E-09
  3.5292E-09
  3.5292E-09
  3.5292E-09
  3.5292E-09
  3.5292E-09
  3.5292E-09
  1.3171E-08
  1.3171E-08
  1.3171E-08
  1.3171E-08
  1.3171E-08
  1.3171E-08
  1.3171E-08
  1.3171E-08
  1.3171E-08
  4.9158E-08
  4.9158E-08
  4.9158E-08
  4.9158E-08
  4.9158E-08
  4.9158E-08
  4.9158E-08
  4.9158E-08
  4.9158E-08
  1.8347E-07
  1.8347E-07
  1.8347E-07
  1.8347E-07
  1.8347E-07
  1.8347E-07
  1.8347E-07
  1.8347E-07
  1.8347E-07
  6.8473E-07
  6.8473E-07
  6.8473E-07
  6.8473E-07
  6.8473E-07
  6.8473E-07
  6.8473E-07
  6.8473E-07
  6.8473E-07
  2.5555E-06
  2.5555E-06
  2.5555E-06
  2.5555E-06
  2.5555E-06
  2.5555E-06
  2.5555E-06
  2.5555E-06
  2.5555E-06
  9.5376E-06
  9.5376E-06
  9.5376E-06
  9.5376E-06
  9.5376E-06
  9.5376E-06
  9.5376E-06
  9.5376E-06
  9.5376E-06
  3.5596E-05
  3.5596E-05
  3.5596E-05
  3.5596E-05
  3.5596E-05
  3.5596E-05
  3.5596E-05
  3.5596E-05
  3.5596E-05
  1.3285E-04
  1.3285E-04
  1.3285E-04
  1.3285E-04
  1.3285E-04
  1.3285E-04
  1.3285E-04
  1.3285E-04
  1.3285E-04
  4.9582E-04
  4.9582E-04
  4.9582E-04
  4.9582E-04
  4.9582E-04
  4.9582E-04
  4.9582E-04
  4.9582E-04
  4.9582E-04
  1.8505E-03
  1.8505E-03
  1.8505E-03
  1.8505E-03
  1.8505E-03
  1.8505E-03
  1.8505E-03
  1.8505E-03
  1.8505E-03
  6.9063E-03
  6.9063E-03
  6.9063E-03
  6.9063E-03
  6.9063E-03
  6.9063E-03
  6.9063E-03
  6.9063E-03
  6.9063E-03
  2.5775E-02
  2.5775E-02
  2.5775E-02
  2.5775E-02
  2.5775E-02
  2.5775E-02
  2.5775E-02
  2.5775E-02
  2.5775E-02
  4.0657E-02
  4.0657E-02
  4.0657E-02
  4.0657E-02
  4.0657E-02
  4.0657E-02
  4.0657E-02
  4.0657E-02
  4.0657E-02
   4.9000E-03
  4.2102E-13
  4.2102E-13
  4.2102E-13
  4.2102E-13
  4.2102E-13
  4.2102E-13
  4.2102E-13
  4.2102E-13
  4.2102E-13
  1.2631E-12
  1.2631E-12
  1.2631E-12
  1.2631E-12
  1.2631E-12
  1.2631E-12
  1.2631E-12
  1.2631E-12
  1.2631E-12
  5.0527E-12
  5.0527E-12
  5.0527E-12
  5.0527E-12
  5.0527E-12
  5.0527E-12
  5.0527E-12
  5.0527E-12
  5.0527E-12
  1.8948E-11
  1.8948E-11
  1.8948E-11
  1.8948E-11
  1.8948E-11
  1.8948E-11
  1.8948E-11
  1.8948E-11
  1.8948E-11
  7.0742E-11
  7.0742E-11
  7.0742E-11
  7.0742E-11
  7.0742E-11
  7.0742E-11
  7.0742E-11
  7.0742E-11
  7.0742E-11
  2.6403E-10
  2.6403E-10
  2.6403E-10
  2.6403E-10
  2.6403E-10
  2.6403E-10
  2.6403E-10
  2.6403E-10
  2.6403E-10
  9.8540E-10
  9.8540E-10
  9.8540E-10
  9.8540E-10
  9.8540E-10
  9.8540E-10
  9.8540E-10
  9.8540E-10
  9.8540E-10
  3.6777E-09
  3.6777E-09
  3.6777E-09
  3.6777E-09
  3.6777E-09
  3.6777E-09
  3.6777E-09
  3.6777E-09
  3.6777E-09
  1.3726E-08
  1.3726E-08
  1.3726E-08
  1.3726E-08
  1.3726E-08
  1.3726E-08
  1.3726E-08
  1.3726E-08
  1.3726E-08
  5.1227E-08
  5.1227E-08
  5.1227E-08
  5.1227E-08
  5.1227E-08
  5.1227E-08
  5.1227E-08
  5.1227E-08
  5.1227E-08
  1.9119E-07
  1.9119E-07
  1.9119E-07
  1.9119E-07
  1.9119E-07
  1.9119E-07
  1.9119E-07
  1.9119E-07
  1.9119E-07
  7.1355E-07
  7.1355E-07
  7.1355E-07
  7.1355E-07
  7.1355E-07
  7.1355E-07
  7.1355E-07
  7.1355E-07
  7.1355E-07
  2.6631E-06
  2.6631E-06
  2.6631E-06
  2.6631E-06
  2.6631E-06
  2.6631E-06
  2.6631E-06
  2.6631E-06
  2.6631E-06
  9.9391E-06
  9.9391E-06
  9.9391E-06
  9.9391E-06
  9.9391E-06
  9.9391E-06
  9.9391E-06
  9.9391E-06
  9.9391E-06
  3.7094E-05
  3.7094E-05
  3.7094E-05
  3.7094E-05
  3.7094E-05
  3.7094E-05
  3.7094E-05
  3.7094E-05
  3.7094E-05
  1.3844E-04
  1.3844E-04
  1.3844E-04
  1.3844E-04
  1.3844E-04
  1.3844E-04
  1.3844E-04
  1.3844E-04
  1.3844E-04
  5.1669E-04
  5.1669E-04
  5.1669E-04
  5.1669E-04
  5.1669E-04
  5.1669E-04
  5.1669E-04
  5.1669E-04
  5.1669E-04
  1.9284E-03
  1.9284E-03
  1.9284E-03
  1.9284E-03
  1.9284E-03
  1.9284E-03
  1.9284E-03
  1.9284E-03
  1.9284E-03
  7.1970E-03
  7.1970E-03
  7.1970E-03
  7.1970E-03
  7.1970E-03
  7.1970E-03
  7.1970E-03
  7.1970E-03
  7.1970E-03
  2.6861E-02
  2.6861E-02
  2.6861E-02
  2.6861E-02
  2.6861E-02
  2.6861E-02
  2.6861E-02
  2.6861E-02
  2.6861E-02
  4.2369E-02
  4.2369E-02
  4.2369E-02
  4.2369E-02
  4.2369E-02
  4.2369E-02
  4.2369E-02
  4.2369E-02
  4.2369E-02
   5.0000E-03
  4.3837E-13
  4.3837E-13
  4.3837E-13
  4.3837E-13
  4.3837E-13
  4.3837E-13
  4.3837E-13
  4.3837E-13
  4.3837E-13
  1.3152E-12
  1.3152E-12
  1.3152E-12
  1.3152E-12
  1.3152E-12
  1.3152E-12
  1.3152E-12
  1.3152E-12
  1.3152E-12
  5.2609E-12
  5.2609E-12
  5.2609E-12
  5.2609E-12
  5.2609E-12
  5.2609E-12
  5.2609E-12
  5.2609E-12
  5.2609E-12
  1.9729E-11
  1.9729E-11
  1.9729E-11
  1.9729E-11
  1.9729E-11
  1.9729E-11
  1.9729E-11
  1.9729E-11
  1.9729E-11
  7.3658E-11
  7.3658E-11
  7.3658E-11
  7.3658E-11
  7.3658E-11
  7.3658E-11
  7.3658E-11
  7.3658E-11
  7.3658E-11
  2.7491E-10
  2.7491E-10
  2.7491E-10
  2.7491E-10
  2.7491E-10
  2.7491E-10
  2.7491E-10
  2.7491E-10
  2.7491E-10
  1.0260E-09
  1.0260E-09
  1.0260E-09
  1.0260E-09
  1.0260E-09
  1.0260E-09
  1.0260E-09
  1.0260E-09
  1.0260E-09
  3.8293E-09
  3.8293E-09
  3.8293E-09
  3.8293E-09
  3.8293E-09
  3.8293E-09
  3.8293E-09
  3.8293E-09
  3.8293E-09
  1.4292E-08
  1.4292E-08
  1.4292E-08
  1.4292E-08
  1.4292E-08
  1.4292E-08
  1.4292E-08
  1.4292E-08
  1.4292E-08
  5.3339E-08
  5.3339E-08
  5.3339E-08
  5.3339E-08
  5.3339E-08
  5.3339E-08
  5.3339E-08
  5.3339E-08
  5.3339E-08
  1.9907E-07
  1.9907E-07
  1.9907E-07
  1.9907E-07
  1.9907E-07
  1.9907E-07
  1.9907E-07
  1.9907E-07
  1.9907E-07
  7.4296E-07
  7.4296E-07
  7.4296E-07
  7.4296E-07
  7.4296E-07
  7.4296E-07
  7.4296E-07
  7.4296E-07
  7.4296E-07
  2.7729E-06
  2.7729E-06
  2.7729E-06
  2.7729E-06
  2.7729E-06
  2.7729E-06
  2.7729E-06
  2.7729E-06
  2.7729E-06
  1.0349E-05
  1.0349E-05
  1.0349E-05
  1.0349E-05
  1.0349E-05
  1.0349E-05
  1.0349E-05
  1.0349E-05
  1.0349E-05
  3.8624E-05
  3.8624E-05
  3.8624E-05
  3.8624E-05
  3.8624E-05
  3.8624E-05
  3.8624E-05
  3.8624E-05
  3.8624E-05
  1.4415E-04
  1.4415E-04
  1.4415E-04
  1.4415E-04
  1.4415E-04
  1.4415E-04
  1.4415E-04
  1.4415E-04
  1.4415E-04
  5.3799E-04
  5.3799E-04
  5.3799E-04
  5.3799E-04
  5.3799E-04
  5.3799E-04
  5.3799E-04
  5.3799E-04
  5.3799E-04
  2.0079E-03
  2.0079E-03
  2.0079E-03
  2.0079E-03
  2.0079E-03
  2.0079E-03
  2.0079E-03
  2.0079E-03
  2.0079E-03
  7.4938E-03
  7.4938E-03
  7.4938E-03
  7.4938E-03
  7.4938E-03
  7.4938E-03
  7.4938E-03
  7.4938E-03
  7.4938E-03
  2.7968E-02
  2.7968E-02
  2.7968E-02
  2.7968E-02
  2.7968E-02
  2.7968E-02
  2.7968E-02
  2.7968E-02
  2.7968E-02
  4.4116E-02
  4.4116E-02
  4.4116E-02
  4.4116E-02
  4.4116E-02
  4.4116E-02
  4.4116E-02
  4.4116E-02
  4.4116E-02
   5.1000E-03
  4.5607E-13
  4.5607E-13
  4.5607E-13
  4.5607E-13
  4.5607E-13
  4.5607E-13
  4.5607E-13
  4.5607E-13
  4.5607E-13
  1.3683E-12
  1.3683E-12
  1.3683E-12
  1.3683E-12
  1.3683E-12
  1.3683E-12
  1.3683E-12
  1.3683E-12
  1.3683E-12
  5.4733E-12
  5.4733E-12
  5.4733E-12
  5.4733E-12
  5.4733E-12
  5.4733E-12
  5.4733E-12
  5.4733E-12
  5.4733E-12
  2.0526E-11
  2.0526E-11
  2.0526E-11
  2.0526E-11
  2.0526E-11
  2.0526E-11
  2.0526E-11
  2.0526E-11
  2.0526E-11
  7.6632E-11
  7.6632E-11
  7.6632E-11
  7.6632E-11
  7.6632E-11
  7.6632E-11
  7.6632E-11
  7.6632E-11
  7.6632E-11
  2.8601E-10
  2.8601E-10
  2.8601E-10
  2.8601E-10
  2.8601E-10
  2.8601E-10
  2.8601E-10
  2.8601E-10
  2.8601E-10
  1.0674E-09
  1.0674E-09
  1.0674E-09
  1.0674E-09
  1.0674E-09
  1.0674E-09
  1.0674E-09
  1.0674E-09
  1.0674E-09
  3.9839E-09
  3.9839E-09
  3.9839E-09
  3.9839E-09
  3.9839E-09
  3.9839E-09
  3.9839E-09
  3.9839E-09
  3.9839E-09
  1.4869E-08
  1.4869E-08
  1.4869E-08
  1.4869E-08
  1.4869E-08
  1.4869E-08
  1.4869E-08
  1.4869E-08
  1.4869E-08
  5.5493E-08
  5.5493E-08
  5.5493E-08
  5.5493E-08
  5.5493E-08
  5.5493E-08
  5.5493E-08
  5.5493E-08
  5.5493E-08
  2.0711E-07
  2.0711E-07
  2.0711E-07
  2.0711E-07
  2.0711E-07
  2.0711E-07
  2.0711E-07
  2.0711E-07
  2.0711E-07
  7.7297E-07
  7.7297E-07
  7.7297E-07
  7.7297E-07
  7.7297E-07
  7.7297E-07
  7.7297E-07
  7.7297E-07
  7.7297E-07
  2.8849E-06
  2.8849E-06
  2.8849E-06
  2.8849E-06
  2.8849E-06
  2.8849E-06
  2.8849E-06
  2.8849E-06
  2.8849E-06
  1.0767E-05
  1.0767E-05
  1.0767E-05
  1.0767E-05
  1.0767E-05
  1.0767E-05
  1.0767E-05
  1.0767E-05
  1.0767E-05
  4.0184E-05
  4.0184E-05
  4.0184E-05
  4.0184E-05
  4.0184E-05
  4.0184E-05
  4.0184E-05
  4.0184E-05
  4.0184E-05
  1.4997E-04
  1.4997E-04
  1.4997E-04
  1.4997E-04
  1.4997E-04
  1.4997E-04
  1.4997E-04
  1.4997E-04
  1.4997E-04
  5.5972E-04
  5.5972E-04
  5.5972E-04
  5.5972E-04
  5.5972E-04
  5.5972E-04
  5.5972E-04
  5.5972E-04
  5.5972E-04
  2.0890E-03
  2.0890E-03
  2.0890E-03
  2.0890E-03
  2.0890E-03
  2.0890E-03
  2.0890E-03
  2.0890E-03
  2.0890E-03
  7.7965E-03
  7.7965E-03
  7.7965E-03
  7.7965E-03
  7.7965E-03
  7.7965E-03
  7.7965E-03
  7.7965E-03
  7.7965E-03
  2.9098E-02
  2.9098E-02
  2.9098E-02
  2.9098E-02
  2.9098E-02
  2.9098E-02
  2.9098E-02
  2.9098E-02
  2.9098E-02
  4.5898E-02
  4.5898E-02
  4.5898E-02
  4.5898E-02
  4.5898E-02
  4.5898E-02
  4.5898E-02
  4.5898E-02
  4.5898E-02
   5.2000E-03
  4.7411E-13
  4.7411E-13
  4.7411E-13
  4.7411E-13
  4.7411E-13
  4.7411E-13
  4.7411E-13
  4.7411E-13
  4.7411E-13
  1.4224E-12
  1.4224E-12
  1.4224E-12
  1.4224E-12
  1.4224E-12
  1.4224E-12
  1.4224E-12
  1.4224E-12
  1.4224E-12
  5.6899E-12
  5.6899E-12
  5.6899E-12
  5.6899E-12
  5.6899E-12
  5.6899E-12
  5.6899E-12
  5.6899E-12
  5.6899E-12
  2.1338E-11
  2.1338E-11
  2.1338E-11
  2.1338E-11
  2.1338E-11
  2.1338E-11
  2.1338E-11
  2.1338E-11
  2.1338E-11
  7.9665E-11
  7.9665E-11
  7.9665E-11
  7.9665E-11
  7.9665E-11
  7.9665E-11
  7.9665E-11
  7.9665E-11
  7.9665E-11
  2.9733E-10
  2.9733E-10
  2.9733E-10
  2.9733E-10
  2.9733E-10
  2.9733E-10
  2.9733E-10
  2.9733E-10
  2.9733E-10
  1.1097E-09
  1.1097E-09
  1.1097E-09
  1.1097E-09
  1.1097E-09
  1.1097E-09
  1.1097E-09
  1.1097E-09
  1.1097E-09
  4.1416E-09
  4.1416E-09
  4.1416E-09
  4.1416E-09
  4.1416E-09
  4.1416E-09
  4.1416E-09
  4.1416E-09
  4.1416E-09
  1.5457E-08
  1.5457E-08
  1.5457E-08
  1.5457E-08
  1.5457E-08
  1.5457E-08
  1.5457E-08
  1.5457E-08
  1.5457E-08
  5.7689E-08
  5.7689E-08
  5.7689E-08
  5.7689E-08
  5.7689E-08
  5.7689E-08
  5.7689E-08
  5.7689E-08
  5.7689E-08
  2.1531E-07
  2.1531E-07
  2.1531E-07
  2.1531E-07
  2.1531E-07
  2.1531E-07
  2.1531E-07
  2.1531E-07
  2.1531E-07
  8.0357E-07
  8.0357E-07
  8.0357E-07
  8.0357E-07
  8.0357E-07
  8.0357E-07
  8.0357E-07
  8.0357E-07
  8.0357E-07
  2.9991E-06
  2.9991E-06
  2.9991E-06
  2.9991E-06
  2.9991E-06
  2.9991E-06
  2.9991E-06
  2.9991E-06
  2.9991E-06
  1.1193E-05
  1.1193E-05
  1.1193E-05
  1.1193E-05
  1.1193E-05
  1.1193E-05
  1.1193E-05
  1.1193E-05
  1.1193E-05
  4.1775E-05
  4.1775E-05
  4.1775E-05
  4.1775E-05
  4.1775E-05
  4.1775E-05
  4.1775E-05
  4.1775E-05
  4.1775E-05
  1.5591E-04
  1.5591E-04
  1.5591E-04
  1.5591E-04
  1.5591E-04
  1.5591E-04
  1.5591E-04
  1.5591E-04
  1.5591E-04
  5.8189E-04
  5.8189E-04
  5.8189E-04
  5.8189E-04
  5.8189E-04
  5.8189E-04
  5.8189E-04
  5.8189E-04
  5.8189E-04
  2.1717E-03
  2.1717E-03
  2.1717E-03
  2.1717E-03
  2.1717E-03
  2.1717E-03
  2.1717E-03
  2.1717E-03
  2.1717E-03
  8.1052E-03
  8.1052E-03
  8.1052E-03
  8.1052E-03
  8.1052E-03
  8.1052E-03
  8.1052E-03
  8.1052E-03
  8.1052E-03
  3.0250E-02
  3.0250E-02
  3.0250E-02
  3.0250E-02
  3.0250E-02
  3.0250E-02
  3.0250E-02
  3.0250E-02
  3.0250E-02
  4.7716E-02
  4.7716E-02
  4.7716E-02
  4.7716E-02
  4.7716E-02
  4.7716E-02
  4.7716E-02
  4.7716E-02
  4.7716E-02
   5.3000E-03
  4.9251E-13
  4.9251E-13
  4.9251E-13
  4.9251E-13
  4.9251E-13
  4.9251E-13
  4.9251E-13
  4.9251E-13
  4.9251E-13
  1.4776E-12
  1.4776E-12
  1.4776E-12
  1.4776E-12
  1.4776E-12
  1.4776E-12
  1.4776E-12
  1.4776E-12
  1.4776E-12
  5.9107E-12
  5.9107E-12
  5.9107E-12
  5.9107E-12
  5.9107E-12
  5.9107E-12
  5.9107E-12
  5.9107E-12
  5.9107E-12
  2.2166E-11
  2.2166E-11
  2.2166E-11
  2.2166E-11
  2.2166E-11
  2.2166E-11
  2.2166E-11
  2.2166E-11
  2.2166E-11
  8.2756E-11
  8.2756E-11
  8.2756E-11
  8.2756E-11
  8.2756E-11
  8.2756E-11
  8.2756E-11
  8.2756E-11
  8.2756E-11
  3.0887E-10
  3.0887E-10
  3.0887E-10
  3.0887E-10
  3.0887E-10
  3.0887E-10
  3.0887E-10
  3.0887E-10
  3.0887E-10
  1.1528E-09
  1.1528E-09
  1.1528E-09
  1.1528E-09
  1.1528E-09
  1.1528E-09
  1.1528E-09
  1.1528E-09
  1.1528E-09
  4.3023E-09
  4.3023E-09
  4.3023E-09
  4.3023E-09
  4.3023E-09
  4.3023E-09
  4.3023E-09
  4.3023E-09
  4.3023E-09
  1.6057E-08
  1.6057E-08
  1.6057E-08
  1.6057E-08
  1.6057E-08
  1.6057E-08
  1.6057E-08
  1.6057E-08
  1.6057E-08
  5.9928E-08
  5.9928E-08
  5.9928E-08
  5.9928E-08
  5.9928E-08
  5.9928E-08
  5.9928E-08
  5.9928E-08
  5.9928E-08
  2.2366E-07
  2.2366E-07
  2.2366E-07
  2.2366E-07
  2.2366E-07
  2.2366E-07
  2.2366E-07
  2.2366E-07
  2.2366E-07
  8.3476E-07
  8.3476E-07
  8.3476E-07
  8.3476E-07
  8.3476E-07
  8.3476E-07
  8.3476E-07
  8.3476E-07
  8.3476E-07
  3.1155E-06
  3.1155E-06
  3.1155E-06
  3.1155E-06
  3.1155E-06
  3.1155E-06
  3.1155E-06
  3.1155E-06
  3.1155E-06
  1.1628E-05
  1.1628E-05
  1.1628E-05
  1.1628E-05
  1.1628E-05
  1.1628E-05
  1.1628E-05
  1.1628E-05
  1.1628E-05
  4.3396E-05
  4.3396E-05
  4.3396E-05
  4.3396E-05
  4.3396E-05
  4.3396E-05
  4.3396E-05
  4.3396E-05
  4.3396E-05
  1.6196E-04
  1.6196E-04
  1.6196E-04
  1.6196E-04
  1.6196E-04
  1.6196E-04
  1.6196E-04
  1.6196E-04
  1.6196E-04
  6.0448E-04
  6.0448E-04
  6.0448E-04
  6.0448E-04
  6.0448E-04
  6.0448E-04
  6.0448E-04
  6.0448E-04
  6.0448E-04
  2.2560E-03
  2.2560E-03
  2.2560E-03
  2.2560E-03
  2.2560E-03
  2.2560E-03
  2.2560E-03
  2.2560E-03
  2.2560E-03
  8.4199E-03
  8.4199E-03
  8.4199E-03
  8.4199E-03
  8.4199E-03
  8.4199E-03
  8.4199E-03
  8.4199E-03
  8.4199E-03
  3.1425E-02
  3.1425E-02
  3.1425E-02
  3.1425E-02
  3.1425E-02
  3.1425E-02
  3.1425E-02
  3.1425E-02
  3.1425E-02
  4.9568E-02
  4.9568E-02
  4.9568E-02
  4.9568E-02
  4.9568E-02
  4.9568E-02
  4.9568E-02
  4.9568E-02
  4.9568E-02
   5.4000E-03
  5.1125E-13
  5.1125E-13
  5.1125E-13
  5.1125E-13
  5.1125E-13
  5.1125E-13
  5.1125E-13
  5.1125E-13
  5.1125E-13
  1.5339E-12
  1.5339E-12
  1.5339E-12
  1.5339E-12
  1.5339E-12
  1.5339E-12
  1.5339E-12
  1.5339E-12
  1.5339E-12
  6.1357E-12
  6.1357E-12
  6.1357E-12
  6.1357E-12
  6.1357E-12
  6.1357E-12
  6.1357E-12
  6.1357E-12
  6.1357E-12
  2.3010E-11
  2.3010E-11
  2.3010E-11
  2.3010E-11
  2.3010E-11
  2.3010E-11
  2.3010E-11
  2.3010E-11
  2.3010E-11
  8.5907E-11
  8.5907E-11
  8.5907E-11
  8.5907E-11
  8.5907E-11
  8.5907E-11
  8.5907E-11
  8.5907E-11
  8.5907E-11
  3.2063E-10
  3.2063E-10
  3.2063E-10
  3.2063E-10
  3.2063E-10
  3.2063E-10
  3.2063E-10
  3.2063E-10
  3.2063E-10
  1.1967E-09
  1.1967E-09
  1.1967E-09
  1.1967E-09
  1.1967E-09
  1.1967E-09
  1.1967E-09
  1.1967E-09
  1.1967E-09
  4.4661E-09
  4.4661E-09
  4.4661E-09
  4.4661E-09
  4.4661E-09
  4.4661E-09
  4.4661E-09
  4.4661E-09
  4.4661E-09
  1.6669E-08
  1.6669E-08
  1.6669E-08
  1.6669E-08
  1.6669E-08
  1.6669E-08
  1.6669E-08
  1.6669E-08
  1.6669E-08
  6.2210E-08
  6.2210E-08
  6.2210E-08
  6.2210E-08
  6.2210E-08
  6.2210E-08
  6.2210E-08
  6.2210E-08
  6.2210E-08
  2.3218E-07
  2.3218E-07
  2.3218E-07
  2.3218E-07
  2.3218E-07
  2.3218E-07
  2.3218E-07
  2.3218E-07
  2.3218E-07
  8.6655E-07
  8.6655E-07
  8.6655E-07
  8.6655E-07
  8.6655E-07
  8.6655E-07
  8.6655E-07
  8.6655E-07
  8.6655E-07
  3.2341E-06
  3.2341E-06
  3.2341E-06
  3.2341E-06
  3.2341E-06
  3.2341E-06
  3.2341E-06
  3.2341E-06
  3.2341E-06
  1.2070E-05
  1.2070E-05
  1.2070E-05
  1.2070E-05
  1.2070E-05
  1.2070E-05
  1.2070E-05
  1.2070E-05
  1.2070E-05
  4.5049E-05
  4.5049E-05
  4.5049E-05
  4.5049E-05
  4.5049E-05
  4.5049E-05
  4.5049E-05
  4.5049E-05
  4.5049E-05
  1.6813E-04
  1.6813E-04
  1.6813E-04
  1.6813E-04
  1.6813E-04
  1.6813E-04
  1.6813E-04
  1.6813E-04
  1.6813E-04
  6.2750E-04
  6.2750E-04
  6.2750E-04
  6.2750E-04
  6.2750E-04
  6.2750E-04
  6.2750E-04
  6.2750E-04
  6.2750E-04
  2.3420E-03
  2.3420E-03
  2.3420E-03
  2.3420E-03
  2.3420E-03
  2.3420E-03
  2.3420E-03
  2.3420E-03
  2.3420E-03
  8.7407E-03
  8.7407E-03
  8.7407E-03
  8.7407E-03
  8.7407E-03
  8.7407E-03
  8.7407E-03
  8.7407E-03
  8.7407E-03
  3.2622E-02
  3.2622E-02
  3.2622E-02
  3.2622E-02
  3.2622E-02
  3.2622E-02
  3.2622E-02
  3.2622E-02
  3.2622E-02
  5.1456E-02
  5.1456E-02
  5.1456E-02
  5.1456E-02
  5.1456E-02
  5.1456E-02
  5.1456E-02
  5.1456E-02
  5.1456E-02
   5.5000E-03
  5.3035E-13
  5.3035E-13
  5.3035E-13
  5.3035E-13
  5.3035E-13
  5.3035E-13
  5.3035E-13
  5.3035E-13
  5.3035E-13
  1.5912E-12
  1.5912E-12
  1.5912E-12
  1.5912E-12
  1.5912E-12
  1.5912E-12
  1.5912E-12
  1.5912E-12
  1.5912E-12
  6.3649E-12
  6.3649E-12
  6.3649E-12
  6.3649E-12
  6.3649E-12
  6.3649E-12
  6.3649E-12
  6.3649E-12
  6.3649E-12
  2.3869E-11
  2.3869E-11
  2.3869E-11
  2.3869E-11
  2.3869E-11
  2.3869E-11
  2.3869E-11
  2.3869E-11
  2.3869E-11
  8.9116E-11
  8.9116E-11
  8.9116E-11
  8.9116E-11
  8.9116E-11
  8.9116E-11
  8.9116E-11
  8.9116E-11
  8.9116E-11
  3.3261E-10
  3.3261E-10
  3.3261E-10
  3.3261E-10
  3.3261E-10
  3.3261E-10
  3.3261E-10
  3.3261E-10
  3.3261E-10
  1.2414E-09
  1.2414E-09
  1.2414E-09
  1.2414E-09
  1.2414E-09
  1.2414E-09
  1.2414E-09
  1.2414E-09
  1.2414E-09
  4.6330E-09
  4.6330E-09
  4.6330E-09
  4.6330E-09
  4.6330E-09
  4.6330E-09
  4.6330E-09
  4.6330E-09
  4.6330E-09
  1.7291E-08
  1.7291E-08
  1.7291E-08
  1.7291E-08
  1.7291E-08
  1.7291E-08
  1.7291E-08
  1.7291E-08
  1.7291E-08
  6.4535E-08
  6.4535E-08
  6.4535E-08
  6.4535E-08
  6.4535E-08
  6.4535E-08
  6.4535E-08
  6.4535E-08
  6.4535E-08
  2.4086E-07
  2.4086E-07
  2.4086E-07
  2.4086E-07
  2.4086E-07
  2.4086E-07
  2.4086E-07
  2.4086E-07
  2.4086E-07
  8.9893E-07
  8.9893E-07
  8.9893E-07
  8.9893E-07
  8.9893E-07
  8.9893E-07
  8.9893E-07
  8.9893E-07
  8.9893E-07
  3.3550E-06
  3.3550E-06
  3.3550E-06
  3.3550E-06
  3.3550E-06
  3.3550E-06
  3.3550E-06
  3.3550E-06
  3.3550E-06
  1.2521E-05
  1.2521E-05
  1.2521E-05
  1.2521E-05
  1.2521E-05
  1.2521E-05
  1.2521E-05
  1.2521E-05
  1.2521E-05
  4.6733E-05
  4.6733E-05
  4.6733E-05
  4.6733E-05
  4.6733E-05
  4.6733E-05
  4.6733E-05
  4.6733E-05
  4.6733E-05
  1.7442E-04
  1.7442E-04
  1.7442E-04
  1.7442E-04
  1.7442E-04
  1.7442E-04
  1.7442E-04
  1.7442E-04
  1.7442E-04
  6.5095E-04
  6.5095E-04
  6.5095E-04
  6.5095E-04
  6.5095E-04
  6.5095E-04
  6.5095E-04
  6.5095E-04
  6.5095E-04
  2.4295E-03
  2.4295E-03
  2.4295E-03
  2.4295E-03
  2.4295E-03
  2.4295E-03
  2.4295E-03
  2.4295E-03
  2.4295E-03
  9.0674E-03
  9.0674E-03
  9.0674E-03
  9.0674E-03
  9.0674E-03
  9.0674E-03
  9.0674E-03
  9.0674E-03
  9.0674E-03
  3.3841E-02
  3.3841E-02
  3.3841E-02
  3.3841E-02
  3.3841E-02
  3.3841E-02
  3.3841E-02
  3.3841E-02
  3.3841E-02
  5.3380E-02
  5.3380E-02
  5.3380E-02
  5.3380E-02
  5.3380E-02
  5.3380E-02
  5.3380E-02
  5.3380E-02
  5.3380E-02
   5.6000E-03
  5.4979E-13
  5.4979E-13
  5.4979E-13
  5.4979E-13
  5.4979E-13
  5.4979E-13
  5.4979E-13
  5.4979E-13
  5.4979E-13
  1.6495E-12
  1.6495E-12
  1.6495E-12
  1.6495E-12
  1.6495E-12
  1.6495E-12
  1.6495E-12
  1.6495E-12
  1.6495E-12
  6.5983E-12
  6.5983E-12
  6.5983E-12
  6.5983E-12
  6.5983E-12
  6.5983E-12
  6.5983E-12
  6.5983E-12
  6.5983E-12
  2.4745E-11
  2.4745E-11
  2.4745E-11
  2.4745E-11
  2.4745E-11
  2.4745E-11
  2.4745E-11
  2.4745E-11
  2.4745E-11
  9.2384E-11
  9.2384E-11
  9.2384E-11
  9.2384E-11
  9.2384E-11
  9.2384E-11
  9.2384E-11
  9.2384E-11
  9.2384E-11
  3.4480E-10
  3.4480E-10
  3.4480E-10
  3.4480E-10
  3.4480E-10
  3.4480E-10
  3.4480E-10
  3.4480E-10
  3.4480E-10
  1.2869E-09
  1.2869E-09
  1.2869E-09
  1.2869E-09
  1.2869E-09
  1.2869E-09
  1.2869E-09
  1.2869E-09
  1.2869E-09
  4.8029E-09
  4.8029E-09
  4.8029E-09
  4.8029E-09
  4.8029E-09
  4.8029E-09
  4.8029E-09
  4.8029E-09
  4.8029E-09
  1.7925E-08
  1.7925E-08
  1.7925E-08
  1.7925E-08
  1.7925E-08
  1.7925E-08
  1.7925E-08
  1.7925E-08
  1.7925E-08
  6.6902E-08
  6.6902E-08
  6.6902E-08
  6.6902E-08
  6.6902E-08
  6.6902E-08
  6.6902E-08
  6.6902E-08
  6.6902E-08
  2.4969E-07
  2.4969E-07
  2.4969E-07
  2.4969E-07
  2.4969E-07
  2.4969E-07
  2.4969E-07
  2.4969E-07
  2.4969E-07
  9.3190E-07
  9.3190E-07
  9.3190E-07
  9.3190E-07
  9.3190E-07
  9.3190E-07
  9.3190E-07
  9.3190E-07
  9.3190E-07
  3.4780E-06
  3.4780E-06
  3.4780E-06
  3.4780E-06
  3.4780E-06
  3.4780E-06
  3.4780E-06
  3.4780E-06
  3.4780E-06
  1.2981E-05
  1.2981E-05
  1.2981E-05
  1.2981E-05
  1.2981E-05
  1.2981E-05
  1.2981E-05
  1.2981E-05
  1.2981E-05
  4.8447E-05
  4.8447E-05
  4.8447E-05
  4.8447E-05
  4.8447E-05
  4.8447E-05
  4.8447E-05
  4.8447E-05
  4.8447E-05
  1.8081E-04
  1.8081E-04
  1.8081E-04
  1.8081E-04
  1.8081E-04
  1.8081E-04
  1.8081E-04
  1.8081E-04
  1.8081E-04
  6.7484E-04
  6.7484E-04
  6.7484E-04
  6.7484E-04
  6.7484E-04
  6.7484E-04
  6.7484E-04
  6.7484E-04
  6.7484E-04
  2.5186E-03
  2.5186E-03
  2.5186E-03
  2.5186E-03
  2.5186E-03
  2.5186E-03
  2.5186E-03
  2.5186E-03
  2.5186E-03
  9.4000E-03
  9.4000E-03
  9.4000E-03
  9.4000E-03
  9.4000E-03
  9.4000E-03
  9.4000E-03
  9.4000E-03
  9.4000E-03
  3.5083E-02
  3.5083E-02
  3.5083E-02
  3.5083E-02
  3.5083E-02
  3.5083E-02
  3.5083E-02
  3.5083E-02
  3.5083E-02
  5.5339E-02
  5.5339E-02
  5.5339E-02
  5.5339E-02
  5.5339E-02
  5.5339E-02
  5.5339E-02
  5.5339E-02
  5.5339E-02
   5.7000E-03
  5.6958E-13
  5.6958E-13
  5.6958E-13
  5.6958E-13
  5.6958E-13
  5.6958E-13
  5.6958E-13
  5.6958E-13
  5.6958E-13
  1.7089E-12
  1.7089E-12
  1.7089E-12
  1.7089E-12
  1.7089E-12
  1.7089E-12
  1.7089E-12
  1.7089E-12
  1.7089E-12
  6.8359E-12
  6.8359E-12
  6.8359E-12
  6.8359E-12
  6.8359E-12
  6.8359E-12
  6.8359E-12
  6.8359E-12
  6.8359E-12
  2.5636E-11
  2.5636E-11
  2.5636E-11
  2.5636E-11
  2.5636E-11
  2.5636E-11
  2.5636E-11
  2.5636E-11
  2.5636E-11
  9.5710E-11
  9.5710E-11
  9.5710E-11
  9.5710E-11
  9.5710E-11
  9.5710E-11
  9.5710E-11
  9.5710E-11
  9.5710E-11
  3.5722E-10
  3.5722E-10
  3.5722E-10
  3.5722E-10
  3.5722E-10
  3.5722E-10
  3.5722E-10
  3.5722E-10
  3.5722E-10
  1.3332E-09
  1.3332E-09
  1.3332E-09
  1.3332E-09
  1.3332E-09
  1.3332E-09
  1.3332E-09
  1.3332E-09
  1.3332E-09
  4.9759E-09
  4.9759E-09
  4.9759E-09
  4.9759E-09
  4.9759E-09
  4.9759E-09
  4.9759E-09
  4.9759E-09
  4.9759E-09
  1.8571E-08
  1.8571E-08
  1.8571E-08
  1.8571E-08
  1.8571E-08
  1.8571E-08
  1.8571E-08
  1.8571E-08
  1.8571E-08
  6.9311E-08
  6.9311E-08
  6.9311E-08
  6.9311E-08
  6.9311E-08
  6.9311E-08
  6.9311E-08
  6.9311E-08
  6.9311E-08
  2.5868E-07
  2.5868E-07
  2.5868E-07
  2.5868E-07
  2.5868E-07
  2.5868E-07
  2.5868E-07
  2.5868E-07
  2.5868E-07
  9.6546E-07
  9.6546E-07
  9.6546E-07
  9.6546E-07
  9.6546E-07
  9.6546E-07
  9.6546E-07
  9.6546E-07
  9.6546E-07
  3.6033E-06
  3.6033E-06
  3.6033E-06
  3.6033E-06
  3.6033E-06
  3.6033E-06
  3.6033E-06
  3.6033E-06
  3.6033E-06
  1.3448E-05
  1.3448E-05
  1.3448E-05
  1.3448E-05
  1.3448E-05
  1.3448E-05
  1.3448E-05
  1.3448E-05
  1.3448E-05
  5.0192E-05
  5.0192E-05
  5.0192E-05
  5.0192E-05
  5.0192E-05
  5.0192E-05
  5.0192E-05
  5.0192E-05
  5.0192E-05
  1.8733E-04
  1.8733E-04
  1.8733E-04
  1.8733E-04
  1.8733E-04
  1.8733E-04
  1.8733E-04
  1.8733E-04
  1.8733E-04
  6.9915E-04
  6.9915E-04
  6.9915E-04
  6.9915E-04
  6.9915E-04
  6.9915E-04
  6.9915E-04
  6.9915E-04
  6.9915E-04
  2.6094E-03
  2.6094E-03
  2.6094E-03
  2.6094E-03
  2.6094E-03
  2.6094E-03
  2.6094E-03
  2.6094E-03
  2.6094E-03
  9.7387E-03
  9.7387E-03
  9.7387E-03
  9.7387E-03
  9.7387E-03
  9.7387E-03
  9.7387E-03
  9.7387E-03
  9.7387E-03
  3.6347E-02
  3.6347E-02
  3.6347E-02
  3.6347E-02
  3.6347E-02
  3.6347E-02
  3.6347E-02
  3.6347E-02
  3.6347E-02
  5.7333E-02
  5.7333E-02
  5.7333E-02
  5.7333E-02
  5.7333E-02
  5.7333E-02
  5.7333E-02
  5.7333E-02
  5.7333E-02
   5.8000E-03
  5.8973E-13
  5.8973E-13
  5.8973E-13
  5.8973E-13
  5.8973E-13
  5.8973E-13
  5.8973E-13
  5.8973E-13
  5.8973E-13
  1.7693E-12
  1.7693E-12
  1.7693E-12
  1.7693E-12
  1.7693E-12
  1.7693E-12
  1.7693E-12
  1.7693E-12
  1.7693E-12
  7.0776E-12
  7.0776E-12
  7.0776E-12
  7.0776E-12
  7.0776E-12
  7.0776E-12
  7.0776E-12
  7.0776E-12
  7.0776E-12
  2.6542E-11
  2.6542E-11
  2.6542E-11
  2.6542E-11
  2.6542E-11
  2.6542E-11
  2.6542E-11
  2.6542E-11
  2.6542E-11
  9.9096E-11
  9.9096E-11
  9.9096E-11
  9.9096E-11
  9.9096E-11
  9.9096E-11
  9.9096E-11
  9.9096E-11
  9.9096E-11
  3.6986E-10
  3.6986E-10
  3.6986E-10
  3.6986E-10
  3.6986E-10
  3.6986E-10
  3.6986E-10
  3.6986E-10
  3.6986E-10
  1.3804E-09
  1.3804E-09
  1.3804E-09
  1.3804E-09
  1.3804E-09
  1.3804E-09
  1.3804E-09
  1.3804E-09
  1.3804E-09
  5.1519E-09
  5.1519E-09
  5.1519E-09
  5.1519E-09
  5.1519E-09
  5.1519E-09
  5.1519E-09
  5.1519E-09
  5.1519E-09
  1.9228E-08
  1.9228E-08
  1.9228E-08
  1.9228E-08
  1.9228E-08
  1.9228E-08
  1.9228E-08
  1.9228E-08
  1.9228E-08
  7.1763E-08
  7.1763E-08
  7.1763E-08
  7.1763E-08
  7.1763E-08
  7.1763E-08
  7.1763E-08
  7.1763E-08
  7.1763E-08
  2.6784E-07
  2.6784E-07
  2.6784E-07
  2.6784E-07
  2.6784E-07
  2.6784E-07
  2.6784E-07
  2.6784E-07
  2.6784E-07
  9.9962E-07
  9.9962E-07
  9.9962E-07
  9.9962E-07
  9.9962E-07
  9.9962E-07
  9.9962E-07
  9.9962E-07
  9.9962E-07
  3.7308E-06
  3.7308E-06
  3.7308E-06
  3.7308E-06
  3.7308E-06
  3.7308E-06
  3.7308E-06
  3.7308E-06
  3.7308E-06
  1.3924E-05
  1.3924E-05
  1.3924E-05
  1.3924E-05
  1.3924E-05
  1.3924E-05
  1.3924E-05
  1.3924E-05
  1.3924E-05
  5.1968E-05
  5.1968E-05
  5.1968E-05
  5.1968E-05
  5.1968E-05
  5.1968E-05
  5.1968E-05
  5.1968E-05
  5.1968E-05
  1.9396E-04
  1.9396E-04
  1.9396E-04
  1.9396E-04
  1.9396E-04
  1.9396E-04
  1.9396E-04
  1.9396E-04
  1.9396E-04
  7.2389E-04
  7.2389E-04
  7.2389E-04
  7.2389E-04
  7.2389E-04
  7.2389E-04
  7.2389E-04
  7.2389E-04
  7.2389E-04
  2.7017E-03
  2.7017E-03
  2.7017E-03
  2.7017E-03
  2.7017E-03
  2.7017E-03
  2.7017E-03
  2.7017E-03
  2.7017E-03
  1.0083E-02
  1.0083E-02
  1.0083E-02
  1.0083E-02
  1.0083E-02
  1.0083E-02
  1.0083E-02
  1.0083E-02
  1.0083E-02
  3.7634E-02
  3.7634E-02
  3.7634E-02
  3.7634E-02
  3.7634E-02
  3.7634E-02
  3.7634E-02
  3.7634E-02
  3.7634E-02
  5.9362E-02
  5.9362E-02
  5.9362E-02
  5.9362E-02
  5.9362E-02
  5.9362E-02
  5.9362E-02
  5.9362E-02
  5.9362E-02
   5.9000E-03
  6.1022E-13
  6.1022E-13
  6.1022E-13
  6.1022E-13
  6.1022E-13
  6.1022E-13
  6.1022E-13
  6.1022E-13
  6.1022E-13
  1.8308E-12
  1.8308E-12
  1.8308E-12
  1.8308E-12
  1.8308E-12
  1.8308E-12
  1.8308E-12
  1.8308E-12
  1.8308E-12
  7.3236E-12
  7.3236E-12
  7.3236E-12
  7.3236E-12
  7.3236E-12
  7.3236E-12
  7.3236E-12
  7.3236E-12
  7.3236E-12
  2.7465E-11
  2.7465E-11
  2.7465E-11
  2.7465E-11
  2.7465E-11
  2.7465E-11
  2.7465E-11
  2.7465E-11
  2.7465E-11
  1.0254E-10
  1.0254E-10
  1.0254E-10
  1.0254E-10
  1.0254E-10
  1.0254E-10
  1.0254E-10
  1.0254E-10
  1.0254E-10
  3.8271E-10
  3.8271E-10
  3.8271E-10
  3.8271E-10
  3.8271E-10
  3.8271E-10
  3.8271E-10
  3.8271E-10
  3.8271E-10
  1.4284E-09
  1.4284E-09
  1.4284E-09
  1.4284E-09
  1.4284E-09
  1.4284E-09
  1.4284E-09
  1.4284E-09
  1.4284E-09
  5.3310E-09
  5.3310E-09
  5.3310E-09
  5.3310E-09
  5.3310E-09
  5.3310E-09
  5.3310E-09
  5.3310E-09
  5.3310E-09
  1.9896E-08
  1.9896E-08
  1.9896E-08
  1.9896E-08
  1.9896E-08
  1.9896E-08
  1.9896E-08
  1.9896E-08
  1.9896E-08
  7.4258E-08
  7.4258E-08
  7.4258E-08
  7.4258E-08
  7.4258E-08
  7.4258E-08
  7.4258E-08
  7.4258E-08
  7.4258E-08
  2.7715E-07
  2.7715E-07
  2.7715E-07
  2.7715E-07
  2.7715E-07
  2.7715E-07
  2.7715E-07
  2.7715E-07
  2.7715E-07
  1.0344E-06
  1.0344E-06
  1.0344E-06
  1.0344E-06
  1.0344E-06
  1.0344E-06
  1.0344E-06
  1.0344E-06
  1.0344E-06
  3.8605E-06
  3.8605E-06
  3.8605E-06
  3.8605E-06
  3.8605E-06
  3.8605E-06
  3.8605E-06
  3.8605E-06
  3.8605E-06
  1.4408E-05
  1.4408E-05
  1.4408E-05
  1.4408E-05
  1.4408E-05
  1.4408E-05
  1.4408E-05
  1.4408E-05
  1.4408E-05
  5.3775E-05
  5.3775E-05
  5.3775E-05
  5.3775E-05
  5.3775E-05
  5.3775E-05
  5.3775E-05
  5.3775E-05
  5.3775E-05
  2.0070E-04
  2.0070E-04
  2.0070E-04
  2.0070E-04
  2.0070E-04
  2.0070E-04
  2.0070E-04
  2.0070E-04
  2.0070E-04
  7.4906E-04
  7.4906E-04
  7.4906E-04
  7.4906E-04
  7.4906E-04
  7.4906E-04
  7.4906E-04
  7.4906E-04
  7.4906E-04
  2.7957E-03
  2.7957E-03
  2.7957E-03
  2.7957E-03
  2.7957E-03
  2.7957E-03
  2.7957E-03
  2.7957E-03
  2.7957E-03
  1.0434E-02
  1.0434E-02
  1.0434E-02
  1.0434E-02
  1.0434E-02
  1.0434E-02
  1.0434E-02
  1.0434E-02
  1.0434E-02
  3.8942E-02
  3.8942E-02
  3.8942E-02
  3.8942E-02
  3.8942E-02
  3.8942E-02
  3.8942E-02
  3.8942E-02
  3.8942E-02
  6.1426E-02
  6.1426E-02
  6.1426E-02
  6.1426E-02
  6.1426E-02
  6.1426E-02
  6.1426E-02
  6.1426E-02
  6.1426E-02
   6.0000E-03
  6.3106E-13
  6.3106E-13
  6.3106E-13
  6.3106E-13
  6.3106E-13
  6.3106E-13
  6.3106E-13
  6.3106E-13
  6.3106E-13
  1.8933E-12
  1.8933E-12
  1.8933E-12
  1.8933E-12
  1.8933E-12
  1.8933E-12
  1.8933E-12
  1.8933E-12
  1.8933E-12
  7.5737E-12
  7.5737E-12
  7.5737E-12
  7.5737E-12
  7.5737E-12
  7.5737E-12
  7.5737E-12
  7.5737E-12
  7.5737E-12
  2.8403E-11
  2.8403E-11
  2.8403E-11
  2.8403E-11
  2.8403E-11
  2.8403E-11
  2.8403E-11
  2.8403E-11
  2.8403E-11
  1.0604E-10
  1.0604E-10
  1.0604E-10
  1.0604E-10
  1.0604E-10
  1.0604E-10
  1.0604E-10
  1.0604E-10
  1.0604E-10
  3.9578E-10
  3.9578E-10
  3.9578E-10
  3.9578E-10
  3.9578E-10
  3.9578E-10
  3.9578E-10
  3.9578E-10
  3.9578E-10
  1.4772E-09
  1.4772E-09
  1.4772E-09
  1.4772E-09
  1.4772E-09
  1.4772E-09
  1.4772E-09
  1.4772E-09
  1.4772E-09
  5.5131E-09
  5.5131E-09
  5.5131E-09
  5.5131E-09
  5.5131E-09
  5.5131E-09
  5.5131E-09
  5.5131E-09
  5.5131E-09
  2.0576E-08
  2.0576E-08
  2.0576E-08
  2.0576E-08
  2.0576E-08
  2.0576E-08
  2.0576E-08
  2.0576E-08
  2.0576E-08
  7.6795E-08
  7.6795E-08
  7.6795E-08
  7.6795E-08
  7.6795E-08
  7.6795E-08
  7.6795E-08
  7.6795E-08
  7.6795E-08
  2.8662E-07
  2.8662E-07
  2.8662E-07
  2.8662E-07
  2.8662E-07
  2.8662E-07
  2.8662E-07
  2.8662E-07
  2.8662E-07
  1.0697E-06
  1.0697E-06
  1.0697E-06
  1.0697E-06
  1.0697E-06
  1.0697E-06
  1.0697E-06
  1.0697E-06
  1.0697E-06
  3.9925E-06
  3.9925E-06
  3.9925E-06
  3.9925E-06
  3.9925E-06
  3.9925E-06
  3.9925E-06
  3.9925E-06
  3.9925E-06
  1.4901E-05
  1.4901E-05
  1.4901E-05
  1.4901E-05
  1.4901E-05
  1.4901E-05
  1.4901E-05
  1.4901E-05
  1.4901E-05
  5.5613E-05
  5.5613E-05
  5.5613E-05
  5.5613E-05
  5.5613E-05
  5.5613E-05
  5.5613E-05
  5.5613E-05
  5.5613E-05
  2.0756E-04
  2.0756E-04
  2.0756E-04
  2.0756E-04
  2.0756E-04
  2.0756E-04
  2.0756E-04
  2.0756E-04
  2.0756E-04
  7.7467E-04
  7.7467E-04
  7.7467E-04
  7.7467E-04
  7.7467E-04
  7.7467E-04
  7.7467E-04
  7.7467E-04
  7.7467E-04
  2.8912E-03
  2.8912E-03
  2.8912E-03
  2.8912E-03
  2.8912E-03
  2.8912E-03
  2.8912E-03
  2.8912E-03
  2.8912E-03
  1.0791E-02
  1.0791E-02
  1.0791E-02
  1.0791E-02
  1.0791E-02
  1.0791E-02
  1.0791E-02
  1.0791E-02
  1.0791E-02
  4.0274E-02
  4.0274E-02
  4.0274E-02
  4.0274E-02
  4.0274E-02
  4.0274E-02
  4.0274E-02
  4.0274E-02
  4.0274E-02
  6.3526E-02
  6.3526E-02
  6.3526E-02
  6.3526E-02
  6.3526E-02
  6.3526E-02
  6.3526E-02
  6.3526E-02
  6.3526E-02
   6.1000E-03
  6.5225E-13
  6.5225E-13
  6.5225E-13
  6.5225E-13
  6.5225E-13
  6.5225E-13
  6.5225E-13
  6.5225E-13
  6.5225E-13
  1.9569E-12
  1.9569E-12
  1.9569E-12
  1.9569E-12
  1.9569E-12
  1.9569E-12
  1.9569E-12
  1.9569E-12
  1.9569E-12
  7.8280E-12
  7.8280E-12
  7.8280E-12
  7.8280E-12
  7.8280E-12
  7.8280E-12
  7.8280E-12
  7.8280E-12
  7.8280E-12
  2.9357E-11
  2.9357E-11
  2.9357E-11
  2.9357E-11
  2.9357E-11
  2.9357E-11
  2.9357E-11
  2.9357E-11
  2.9357E-11
  1.0960E-10
  1.0960E-10
  1.0960E-10
  1.0960E-10
  1.0960E-10
  1.0960E-10
  1.0960E-10
  1.0960E-10
  1.0960E-10
  4.0908E-10
  4.0908E-10
  4.0908E-10
  4.0908E-10
  4.0908E-10
  4.0908E-10
  4.0908E-10
  4.0908E-10
  4.0908E-10
  1.5268E-09
  1.5268E-09
  1.5268E-09
  1.5268E-09
  1.5268E-09
  1.5268E-09
  1.5268E-09
  1.5268E-09
  1.5268E-09
  5.6983E-09
  5.6983E-09
  5.6983E-09
  5.6983E-09
  5.6983E-09
  5.6983E-09
  5.6983E-09
  5.6983E-09
  5.6983E-09
  2.1267E-08
  2.1267E-08
  2.1267E-08
  2.1267E-08
  2.1267E-08
  2.1267E-08
  2.1267E-08
  2.1267E-08
  2.1267E-08
  7.9375E-08
  7.9375E-08
  7.9375E-08
  7.9375E-08
  7.9375E-08
  7.9375E-08
  7.9375E-08
  7.9375E-08
  7.9375E-08
  2.9625E-07
  2.9625E-07
  2.9625E-07
  2.9625E-07
  2.9625E-07
  2.9625E-07
  2.9625E-07
  2.9625E-07
  2.9625E-07
  1.1057E-06
  1.1057E-06
  1.1057E-06
  1.1057E-06
  1.1057E-06
  1.1057E-06
  1.1057E-06
  1.1057E-06
  1.1057E-06
  4.1266E-06
  4.1266E-06
  4.1266E-06
  4.1266E-06
  4.1266E-06
  4.1266E-06
  4.1266E-06
  4.1266E-06
  4.1266E-06
  1.5401E-05
  1.5401E-05
  1.5401E-05
  1.5401E-05
  1.5401E-05
  1.5401E-05
  1.5401E-05
  1.5401E-05
  1.5401E-05
  5.7482E-05
  5.7482E-05
  5.7482E-05
  5.7482E-05
  5.7482E-05
  5.7482E-05
  5.7482E-05
  5.7482E-05
  5.7482E-05
  2.1454E-04
  2.1454E-04
  2.1454E-04
  2.1454E-04
  2.1454E-04
  2.1454E-04
  2.1454E-04
  2.1454E-04
  2.1454E-04
  8.0070E-04
  8.0070E-04
  8.0070E-04
  8.0070E-04
  8.0070E-04
  8.0070E-04
  8.0070E-04
  8.0070E-04
  8.0070E-04
  2.9884E-03
  2.9884E-03
  2.9884E-03
  2.9884E-03
  2.9884E-03
  2.9884E-03
  2.9884E-03
  2.9884E-03
  2.9884E-03
  1.1153E-02
  1.1153E-02
  1.1153E-02
  1.1153E-02
  1.1153E-02
  1.1153E-02
  1.1153E-02
  1.1153E-02
  1.1153E-02
  4.1627E-02
  4.1627E-02
  4.1627E-02
  4.1627E-02
  4.1627E-02
  4.1627E-02
  4.1627E-02
  4.1627E-02
  4.1627E-02
  6.5661E-02
  6.5661E-02
  6.5661E-02
  6.5661E-02
  6.5661E-02
  6.5661E-02
  6.5661E-02
  6.5661E-02
  6.5661E-02
   6.2000E-03
  6.7378E-13
  6.7378E-13
  6.7378E-13
  6.7378E-13
  6.7378E-13
  6.7378E-13
  6.7378E-13
  6.7378E-13
  6.7378E-13
  2.0215E-12
  2.0215E-12
  2.0215E-12
  2.0215E-12
  2.0215E-12
  2.0215E-12
  2.0215E-12
  2.0215E-12
  2.0215E-12
  8.0866E-12
  8.0866E-12
  8.0866E-12
  8.0866E-12
  8.0866E-12
  8.0866E-12
  8.0866E-12
  8.0866E-12
  8.0866E-12
  3.0326E-11
  3.0326E-11
  3.0326E-11
  3.0326E-11
  3.0326E-11
  3.0326E-11
  3.0326E-11
  3.0326E-11
  3.0326E-11
  1.1322E-10
  1.1322E-10
  1.1322E-10
  1.1322E-10
  1.1322E-10
  1.1322E-10
  1.1322E-10
  1.1322E-10
  1.1322E-10
  4.2259E-10
  4.2259E-10
  4.2259E-10
  4.2259E-10
  4.2259E-10
  4.2259E-10
  4.2259E-10
  4.2259E-10
  4.2259E-10
  1.5772E-09
  1.5772E-09
  1.5772E-09
  1.5772E-09
  1.5772E-09
  1.5772E-09
  1.5772E-09
  1.5772E-09
  1.5772E-09
  5.8865E-09
  5.8865E-09
  5.8865E-09
  5.8865E-09
  5.8865E-09
  5.8865E-09
  5.8865E-09
  5.8865E-09
  5.8865E-09
  2.1970E-08
  2.1970E-08
  2.1970E-08
  2.1970E-08
  2.1970E-08
  2.1970E-08
  2.1970E-08
  2.1970E-08
  2.1970E-08
  8.1997E-08
  8.1997E-08
  8.1997E-08
  8.1997E-08
  8.1997E-08
  8.1997E-08
  8.1997E-08
  8.1997E-08
  8.1997E-08
  3.0603E-07
  3.0603E-07
  3.0603E-07
  3.0603E-07
  3.0603E-07
  3.0603E-07
  3.0603E-07
  3.0603E-07
  3.0603E-07
  1.1422E-06
  1.1422E-06
  1.1422E-06
  1.1422E-06
  1.1422E-06
  1.1422E-06
  1.1422E-06
  1.1422E-06
  1.1422E-06
  4.2629E-06
  4.2629E-06
  4.2629E-06
  4.2629E-06
  4.2629E-06
  4.2629E-06
  4.2629E-06
  4.2629E-06
  4.2629E-06
  1.5910E-05
  1.5910E-05
  1.5910E-05
  1.5910E-05
  1.5910E-05
  1.5910E-05
  1.5910E-05
  1.5910E-05
  1.5910E-05
  5.9381E-05
  5.9381E-05
  5.9381E-05
  5.9381E-05
  5.9381E-05
  5.9381E-05
  5.9381E-05
  5.9381E-05
  5.9381E-05
  2.2163E-04
  2.2163E-04
  2.2163E-04
  2.2163E-04
  2.2163E-04
  2.2163E-04
  2.2163E-04
  2.2163E-04
  2.2163E-04
  8.2716E-04
  8.2716E-04
  8.2716E-04
  8.2716E-04
  8.2716E-04
  8.2716E-04
  8.2716E-04
  8.2716E-04
  8.2716E-04
  3.0872E-03
  3.0872E-03
  3.0872E-03
  3.0872E-03
  3.0872E-03
  3.0872E-03
  3.0872E-03
  3.0872E-03
  3.0872E-03
  1.1522E-02
  1.1522E-02
  1.1522E-02
  1.1522E-02
  1.1522E-02
  1.1522E-02
  1.1522E-02
  1.1522E-02
  1.1522E-02
  4.3003E-02
  4.3003E-02
  4.3003E-02
  4.3003E-02
  4.3003E-02
  4.3003E-02
  4.3003E-02
  4.3003E-02
  4.3003E-02
  6.7832E-02
  6.7832E-02
  6.7832E-02
  6.7832E-02
  6.7832E-02
  6.7832E-02
  6.7832E-02
  6.7832E-02
  6.7832E-02
   6.3000E-03
  6.9567E-13
  6.9567E-13
  6.9567E-13
  6.9567E-13
  6.9567E-13
  6.9567E-13
  6.9567E-13
  6.9567E-13
  6.9567E-13
  2.0872E-12
  2.0872E-12
  2.0872E-12
  2.0872E-12
  2.0872E-12
  2.0872E-12
  2.0872E-12
  2.0872E-12
  2.0872E-12
  8.3493E-12
  8.3493E-12
  8.3493E-12
  8.3493E-12
  8.3493E-12
  8.3493E-12
  8.3493E-12
  8.3493E-12
  8.3493E-12
  3.1311E-11
  3.1311E-11
  3.1311E-11
  3.1311E-11
  3.1311E-11
  3.1311E-11
  3.1311E-11
  3.1311E-11
  3.1311E-11
  1.1690E-10
  1.1690E-10
  1.1690E-10
  1.1690E-10
  1.1690E-10
  1.1690E-10
  1.1690E-10
  1.1690E-10
  1.1690E-10
  4.3632E-10
  4.3632E-10
  4.3632E-10
  4.3632E-10
  4.3632E-10
  4.3632E-10
  4.3632E-10
  4.3632E-10
  4.3632E-10
  1.6285E-09
  1.6285E-09
  1.6285E-09
  1.6285E-09
  1.6285E-09
  1.6285E-09
  1.6285E-09
  1.6285E-09
  1.6285E-09
  6.0778E-09
  6.0778E-09
  6.0778E-09
  6.0778E-09
  6.0778E-09
  6.0778E-09
  6.0778E-09
  6.0778E-09
  6.0778E-09
  2.2684E-08
  2.2684E-08
  2.2684E-08
  2.2684E-08
  2.2684E-08
  2.2684E-08
  2.2684E-08
  2.2684E-08
  2.2684E-08
  8.4662E-08
  8.4662E-08
  8.4662E-08
  8.4662E-08
  8.4662E-08
  8.4662E-08
  8.4662E-08
  8.4662E-08
  8.4662E-08
  3.1598E-07
  3.1598E-07
  3.1598E-07
  3.1598E-07
  3.1598E-07
  3.1598E-07
  3.1598E-07
  3.1598E-07
  3.1598E-07
  1.1793E-06
  1.1793E-06
  1.1793E-06
  1.1793E-06
  1.1793E-06
  1.1793E-06
  1.1793E-06
  1.1793E-06
  1.1793E-06
  4.4015E-06
  4.4015E-06
  4.4015E-06
  4.4015E-06
  4.4015E-06
  4.4015E-06
  4.4015E-06
  4.4015E-06
  4.4015E-06
  1.6428E-05
  1.6428E-05
  1.6428E-05
  1.6428E-05
  1.6428E-05
  1.6428E-05
  1.6428E-05
  1.6428E-05
  1.6428E-05
  6.1312E-05
  6.1312E-05
  6.1312E-05
  6.1312E-05
  6.1312E-05
  6.1312E-05
  6.1312E-05
  6.1312E-05
  6.1312E-05
  2.2883E-04
  2.2883E-04
  2.2883E-04
  2.2883E-04
  2.2883E-04
  2.2883E-04
  2.2883E-04
  2.2883E-04
  2.2883E-04
  8.5405E-04
  8.5405E-04
  8.5405E-04
  8.5405E-04
  8.5405E-04
  8.5405E-04
  8.5405E-04
  8.5405E-04
  8.5405E-04
  3.1875E-03
  3.1875E-03
  3.1875E-03
  3.1875E-03
  3.1875E-03
  3.1875E-03
  3.1875E-03
  3.1875E-03
  3.1875E-03
  1.1897E-02
  1.1897E-02
  1.1897E-02
  1.1897E-02
  1.1897E-02
  1.1897E-02
  1.1897E-02
  1.1897E-02
  1.1897E-02
  4.4401E-02
  4.4401E-02
  4.4401E-02
  4.4401E-02
  4.4401E-02
  4.4401E-02
  4.4401E-02
  4.4401E-02
  4.4401E-02
  7.0037E-02
  7.0037E-02
  7.0037E-02
  7.0037E-02
  7.0037E-02
  7.0037E-02
  7.0037E-02
  7.0037E-02
  7.0037E-02
   6.4000E-03
  7.1790E-13
  7.1790E-13
  7.1790E-13
  7.1790E-13
  7.1790E-13
  7.1790E-13
  7.1790E-13
  7.1790E-13
  7.1790E-13
  2.1539E-12
  2.1539E-12
  2.1539E-12
  2.1539E-12
  2.1539E-12
  2.1539E-12
  2.1539E-12
  2.1539E-12
  2.1539E-12
  8.6162E-12
  8.6162E-12
  8.6162E-12
  8.6162E-12
  8.6162E-12
  8.6162E-12
  8.6162E-12
  8.6162E-12
  8.6162E-12
  3.2312E-11
  3.2312E-11
  3.2312E-11
  3.2312E-11
  3.2312E-11
  3.2312E-11
  3.2312E-11
  3.2312E-11
  3.2312E-11
  1.2064E-10
  1.2064E-10
  1.2064E-10
  1.2064E-10
  1.2064E-10
  1.2064E-10
  1.2064E-10
  1.2064E-10
  1.2064E-10
  4.5027E-10
  4.5027E-10
  4.5027E-10
  4.5027E-10
  4.5027E-10
  4.5027E-10
  4.5027E-10
  4.5027E-10
  4.5027E-10
  1.6805E-09
  1.6805E-09
  1.6805E-09
  1.6805E-09
  1.6805E-09
  1.6805E-09
  1.6805E-09
  1.6805E-09
  1.6805E-09
  6.2722E-09
  6.2722E-09
  6.2722E-09
  6.2722E-09
  6.2722E-09
  6.2722E-09
  6.2722E-09
  6.2722E-09
  6.2722E-09
  2.3409E-08
  2.3409E-08
  2.3409E-08
  2.3409E-08
  2.3409E-08
  2.3409E-08
  2.3409E-08
  2.3409E-08
  2.3409E-08
  8.7369E-08
  8.7369E-08
  8.7369E-08
  8.7369E-08
  8.7369E-08
  8.7369E-08
  8.7369E-08
  8.7369E-08
  8.7369E-08
  3.2609E-07
  3.2609E-07
  3.2609E-07
  3.2609E-07
  3.2609E-07
  3.2609E-07
  3.2609E-07
  3.2609E-07
  3.2609E-07
  1.2170E-06
  1.2170E-06
  1.2170E-06
  1.2170E-06
  1.2170E-06
  1.2170E-06
  1.2170E-06
  1.2170E-06
  1.2170E-06
  4.5423E-06
  4.5423E-06
  4.5423E-06
  4.5423E-06
  4.5423E-06
  4.5423E-06
  4.5423E-06
  4.5423E-06
  4.5423E-06
  1.6953E-05
  1.6953E-05
  1.6953E-05
  1.6953E-05
  1.6953E-05
  1.6953E-05
  1.6953E-05
  1.6953E-05
  1.6953E-05
  6.3273E-05
  6.3273E-05
  6.3273E-05
  6.3273E-05
  6.3273E-05
  6.3273E-05
  6.3273E-05
  6.3273E-05
  6.3273E-05
  2.3615E-04
  2.3615E-04
  2.3615E-04
  2.3615E-04
  2.3615E-04
  2.3615E-04
  2.3615E-04
  2.3615E-04
  2.3615E-04
  8.8137E-04
  8.8137E-04
  8.8137E-04
  8.8137E-04
  8.8137E-04
  8.8137E-04
  8.8137E-04
  8.8137E-04
  8.8137E-04
  3.2895E-03
  3.2895E-03
  3.2895E-03
  3.2895E-03
  3.2895E-03
  3.2895E-03
  3.2895E-03
  3.2895E-03
  3.2895E-03
  1.2277E-02
  1.2277E-02
  1.2277E-02
  1.2277E-02
  1.2277E-02
  1.2277E-02
  1.2277E-02
  1.2277E-02
  1.2277E-02
  4.5822E-02
  4.5822E-02
  4.5822E-02
  4.5822E-02
  4.5822E-02
  4.5822E-02
  4.5822E-02
  4.5822E-02
  4.5822E-02
  7.2278E-02
  7.2278E-02
  7.2278E-02
  7.2278E-02
  7.2278E-02
  7.2278E-02
  7.2278E-02
  7.2278E-02
  7.2278E-02
   6.5000E-03
  7.4049E-13
  7.4049E-13
  7.4049E-13
  7.4049E-13
  7.4049E-13
  7.4049E-13
  7.4049E-13
  7.4049E-13
  7.4049E-13
  2.2217E-12
  2.2217E-12
  2.2217E-12
  2.2217E-12
  2.2217E-12
  2.2217E-12
  2.2217E-12
  2.2217E-12
  2.2217E-12
  8.8873E-12
  8.8873E-12
  8.8873E-12
  8.8873E-12
  8.8873E-12
  8.8873E-12
  8.8873E-12
  8.8873E-12
  8.8873E-12
  3.3329E-11
  3.3329E-11
  3.3329E-11
  3.3329E-11
  3.3329E-11
  3.3329E-11
  3.3329E-11
  3.3329E-11
  3.3329E-11
  1.2444E-10
  1.2444E-10
  1.2444E-10
  1.2444E-10
  1.2444E-10
  1.2444E-10
  1.2444E-10
  1.2444E-10
  1.2444E-10
  4.6444E-10
  4.6444E-10
  4.6444E-10
  4.6444E-10
  4.6444E-10
  4.6444E-10
  4.6444E-10
  4.6444E-10
  4.6444E-10
  1.7334E-09
  1.7334E-09
  1.7334E-09
  1.7334E-09
  1.7334E-09
  1.7334E-09
  1.7334E-09
  1.7334E-09
  1.7334E-09
  6.4695E-09
  6.4695E-09
  6.4695E-09
  6.4695E-09
  6.4695E-09
  6.4695E-09
  6.4695E-09
  6.4695E-09
  6.4695E-09
  2.4146E-08
  2.4146E-08
  2.4146E-08
  2.4146E-08
  2.4146E-08
  2.4146E-08
  2.4146E-08
  2.4146E-08
  2.4146E-08
  9.0119E-08
  9.0119E-08
  9.0119E-08
  9.0119E-08
  9.0119E-08
  9.0119E-08
  9.0119E-08
  9.0119E-08
  9.0119E-08
  3.3635E-07
  3.3635E-07
  3.3635E-07
  3.3635E-07
  3.3635E-07
  3.3635E-07
  3.3635E-07
  3.3635E-07
  3.3635E-07
  1.2553E-06
  1.2553E-06
  1.2553E-06
  1.2553E-06
  1.2553E-06
  1.2553E-06
  1.2553E-06
  1.2553E-06
  1.2553E-06
  4.6853E-06
  4.6853E-06
  4.6853E-06
  4.6853E-06
  4.6853E-06
  4.6853E-06
  4.6853E-06
  4.6853E-06
  4.6853E-06
  1.7487E-05
  1.7487E-05
  1.7487E-05
  1.7487E-05
  1.7487E-05
  1.7487E-05
  1.7487E-05
  1.7487E-05
  1.7487E-05
  6.5265E-05
  6.5265E-05
  6.5265E-05
  6.5265E-05
  6.5265E-05
  6.5265E-05
  6.5265E-05
  6.5265E-05
  6.5265E-05
  2.4359E-04
  2.4359E-04
  2.4359E-04
  2.4359E-04
  2.4359E-04
  2.4359E-04
  2.4359E-04
  2.4359E-04
  2.4359E-04
  9.0913E-04
  9.0913E-04
  9.0913E-04
  9.0913E-04
  9.0913E-04
  9.0913E-04
  9.0913E-04
  9.0913E-04
  9.0913E-04
  3.3931E-03
  3.3931E-03
  3.3931E-03
  3.3931E-03
  3.3931E-03
  3.3931E-03
  3.3931E-03
  3.3931E-03
  3.3931E-03
  1.2664E-02
  1.2664E-02
  1.2664E-02
  1.2664E-02
  1.2664E-02
  1.2664E-02
  1.2664E-02
  1.2664E-02
  1.2664E-02
  4.7265E-02
  4.7265E-02
  4.7265E-02
  4.7265E-02
  4.7265E-02
  4.7265E-02
  4.7265E-02
  4.7265E-02
  4.7265E-02
  7.4555E-02
  7.4555E-02
  7.4555E-02
  7.4555E-02
  7.4555E-02
  7.4555E-02
  7.4555E-02
  7.4555E-02
  7.4555E-02
   6.6000E-03
  7.6342E-13
  7.6342E-13
  7.6342E-13
  7.6342E-13
  7.6342E-13
  7.6342E-13
  7.6342E-13
  7.6342E-13
  7.6342E-13
  2.2905E-12
  2.2905E-12
  2.2905E-12
  2.2905E-12
  2.2905E-12
  2.2905E-12
  2.2905E-12
  2.2905E-12
  2.2905E-12
  9.1625E-12
  9.1625E-12
  9.1625E-12
  9.1625E-12
  9.1625E-12
  9.1625E-12
  9.1625E-12
  9.1625E-12
  9.1625E-12
  3.4361E-11
  3.4361E-11
  3.4361E-11
  3.4361E-11
  3.4361E-11
  3.4361E-11
  3.4361E-11
  3.4361E-11
  3.4361E-11
  1.2829E-10
  1.2829E-10
  1.2829E-10
  1.2829E-10
  1.2829E-10
  1.2829E-10
  1.2829E-10
  1.2829E-10
  1.2829E-10
  4.7883E-10
  4.7883E-10
  4.7883E-10
  4.7883E-10
  4.7883E-10
  4.7883E-10
  4.7883E-10
  4.7883E-10
  4.7883E-10
  1.7871E-09
  1.7871E-09
  1.7871E-09
  1.7871E-09
  1.7871E-09
  1.7871E-09
  1.7871E-09
  1.7871E-09
  1.7871E-09
  6.6700E-09
  6.6700E-09
  6.6700E-09
  6.6700E-09
  6.6700E-09
  6.6700E-09
  6.6700E-09
  6.6700E-09
  6.6700E-09
  2.4894E-08
  2.4894E-08
  2.4894E-08
  2.4894E-08
  2.4894E-08
  2.4894E-08
  2.4894E-08
  2.4894E-08
  2.4894E-08
  9.2912E-08
  9.2912E-08
  9.2912E-08
  9.2912E-08
  9.2912E-08
  9.2912E-08
  9.2912E-08
  9.2912E-08
  9.2912E-08
  3.4677E-07
  3.4677E-07
  3.4677E-07
  3.4677E-07
  3.4677E-07
  3.4677E-07
  3.4677E-07
  3.4677E-07
  3.4677E-07
  1.2942E-06
  1.2942E-06
  1.2942E-06
  1.2942E-06
  1.2942E-06
  1.2942E-06
  1.2942E-06
  1.2942E-06
  1.2942E-06
  4.8305E-06
  4.8305E-06
  4.8305E-06
  4.8305E-06
  4.8305E-06
  4.8305E-06
  4.8305E-06
  4.8305E-06
  4.8305E-06
  1.8029E-05
  1.8029E-05
  1.8029E-05
  1.8029E-05
  1.8029E-05
  1.8029E-05
  1.8029E-05
  1.8029E-05
  1.8029E-05
  6.7288E-05
  6.7288E-05
  6.7288E-05
  6.7288E-05
  6.7288E-05
  6.7288E-05
  6.7288E-05
  6.7288E-05
  6.7288E-05
  2.5114E-04
  2.5114E-04
  2.5114E-04
  2.5114E-04
  2.5114E-04
  2.5114E-04
  2.5114E-04
  2.5114E-04
  2.5114E-04
  9.3731E-04
  9.3731E-04
  9.3731E-04
  9.3731E-04
  9.3731E-04
  9.3731E-04
  9.3731E-04
  9.3731E-04
  9.3731E-04
  3.4983E-03
  3.4983E-03
  3.4983E-03
  3.4983E-03
  3.4983E-03
  3.4983E-03
  3.4983E-03
  3.4983E-03
  3.4983E-03
  1.3057E-02
  1.3057E-02
  1.3057E-02
  1.3057E-02
  1.3057E-02
  1.3057E-02
  1.3057E-02
  1.3057E-02
  1.3057E-02
  4.8731E-02
  4.8731E-02
  4.8731E-02
  4.8731E-02
  4.8731E-02
  4.8731E-02
  4.8731E-02
  4.8731E-02
  4.8731E-02
  7.6866E-02
  7.6866E-02
  7.6866E-02
  7.6866E-02
  7.6866E-02
  7.6866E-02
  7.6866E-02
  7.6866E-02
  7.6866E-02
   6.7000E-03
  7.8670E-13
  7.8670E-13
  7.8670E-13
  7.8670E-13
  7.8670E-13
  7.8670E-13
  7.8670E-13
  7.8670E-13
  7.8670E-13
  2.3603E-12
  2.3603E-12
  2.3603E-12
  2.3603E-12
  2.3603E-12
  2.3603E-12
  2.3603E-12
  2.3603E-12
  2.3603E-12
  9.4420E-12
  9.4420E-12
  9.4420E-12
  9.4420E-12
  9.4420E-12
  9.4420E-12
  9.4420E-12
  9.4420E-12
  9.4420E-12
  3.5410E-11
  3.5410E-11
  3.5410E-11
  3.5410E-11
  3.5410E-11
  3.5410E-11
  3.5410E-11
  3.5410E-11
  3.5410E-11
  1.3220E-10
  1.3220E-10
  1.3220E-10
  1.3220E-10
  1.3220E-10
  1.3220E-10
  1.3220E-10
  1.3220E-10
  1.3220E-10
  4.9343E-10
  4.9343E-10
  4.9343E-10
  4.9343E-10
  4.9343E-10
  4.9343E-10
  4.9343E-10
  4.9343E-10
  4.9343E-10
  1.8416E-09
  1.8416E-09
  1.8416E-09
  1.8416E-09
  1.8416E-09
  1.8416E-09
  1.8416E-09
  1.8416E-09
  1.8416E-09
  6.8735E-09
  6.8735E-09
  6.8735E-09
  6.8735E-09
  6.8735E-09
  6.8735E-09
  6.8735E-09
  6.8735E-09
  6.8735E-09
  2.5654E-08
  2.5654E-08
  2.5654E-08
  2.5654E-08
  2.5654E-08
  2.5654E-08
  2.5654E-08
  2.5654E-08
  2.5654E-08
  9.5747E-08
  9.5747E-08
  9.5747E-08
  9.5747E-08
  9.5747E-08
  9.5747E-08
  9.5747E-08
  9.5747E-08
  9.5747E-08
  3.5735E-07
  3.5735E-07
  3.5735E-07
  3.5735E-07
  3.5735E-07
  3.5735E-07
  3.5735E-07
  3.5735E-07
  3.5735E-07
  1.3337E-06
  1.3337E-06
  1.3337E-06
  1.3337E-06
  1.3337E-06
  1.3337E-06
  1.3337E-06
  1.3337E-06
  1.3337E-06
  4.9779E-06
  4.9779E-06
  4.9779E-06
  4.9779E-06
  4.9779E-06
  4.9779E-06
  4.9779E-06
  4.9779E-06
  4.9779E-06
  1.8579E-05
  1.8579E-05
  1.8579E-05
  1.8579E-05
  1.8579E-05
  1.8579E-05
  1.8579E-05
  1.8579E-05
  1.8579E-05
  6.9342E-05
  6.9342E-05
  6.9342E-05
  6.9342E-05
  6.9342E-05
  6.9342E-05
  6.9342E-05
  6.9342E-05
  6.9342E-05
  2.5880E-04
  2.5880E-04
  2.5880E-04
  2.5880E-04
  2.5880E-04
  2.5880E-04
  2.5880E-04
  2.5880E-04
  2.5880E-04
  9.6592E-04
  9.6592E-04
  9.6592E-04
  9.6592E-04
  9.6592E-04
  9.6592E-04
  9.6592E-04
  9.6592E-04
  9.6592E-04
  3.6051E-03
  3.6051E-03
  3.6051E-03
  3.6051E-03
  3.6051E-03
  3.6051E-03
  3.6051E-03
  3.6051E-03
  3.6051E-03
  1.3455E-02
  1.3455E-02
  1.3455E-02
  1.3455E-02
  1.3455E-02
  1.3455E-02
  1.3455E-02
  1.3455E-02
  1.3455E-02
  5.0218E-02
  5.0218E-02
  5.0218E-02
  5.0218E-02
  5.0218E-02
  5.0218E-02
  5.0218E-02
  5.0218E-02
  5.0218E-02
  7.9213E-02
  7.9213E-02
  7.9213E-02
  7.9213E-02
  7.9213E-02
  7.9213E-02
  7.9213E-02
  7.9213E-02
  7.9213E-02
   6.8000E-03
  8.1033E-13
  8.1033E-13
  8.1033E-13
  8.1033E-13
  8.1033E-13
  8.1033E-13
  8.1033E-13
  8.1033E-13
  8.1033E-13
  2.4312E-12
  2.4312E-12
  2.4312E-12
  2.4312E-12
  2.4312E-12
  2.4312E-12
  2.4312E-12
  2.4312E-12
  2.4312E-12
  9.7256E-12
  9.7256E-12
  9.7256E-12
  9.7256E-12
  9.7256E-12
  9.7256E-12
  9.7256E-12
  9.7256E-12
  9.7256E-12
  3.6473E-11
  3.6473E-11
  3.6473E-11
  3.6473E-11
  3.6473E-11
  3.6473E-11
  3.6473E-11
  3.6473E-11
  3.6473E-11
  1.3618E-10
  1.3618E-10
  1.3618E-10
  1.3618E-10
  1.3618E-10
  1.3618E-10
  1.3618E-10
  1.3618E-10
  1.3618E-10
  5.0826E-10
  5.0826E-10
  5.0826E-10
  5.0826E-10
  5.0826E-10
  5.0826E-10
  5.0826E-10
  5.0826E-10
  5.0826E-10
  1.8970E-09
  1.8970E-09
  1.8970E-09
  1.8970E-09
  1.8970E-09
  1.8970E-09
  1.8970E-09
  1.8970E-09
  1.8970E-09
  7.0800E-09
  7.0800E-09
  7.0800E-09
  7.0800E-09
  7.0800E-09
  7.0800E-09
  7.0800E-09
  7.0800E-09
  7.0800E-09
  2.6425E-08
  2.6425E-08
  2.6425E-08
  2.6425E-08
  2.6425E-08
  2.6425E-08
  2.6425E-08
  2.6425E-08
  2.6425E-08
  9.8624E-08
  9.8624E-08
  9.8624E-08
  9.8624E-08
  9.8624E-08
  9.8624E-08
  9.8624E-08
  9.8624E-08
  9.8624E-08
  3.6809E-07
  3.6809E-07
  3.6809E-07
  3.6809E-07
  3.6809E-07
  3.6809E-07
  3.6809E-07
  3.6809E-07
  3.6809E-07
  1.3738E-06
  1.3738E-06
  1.3738E-06
  1.3738E-06
  1.3738E-06
  1.3738E-06
  1.3738E-06
  1.3738E-06
  1.3738E-06
  5.1275E-06
  5.1275E-06
  5.1275E-06
  5.1275E-06
  5.1275E-06
  5.1275E-06
  5.1275E-06
  5.1275E-06
  5.1275E-06
  1.9137E-05
  1.9137E-05
  1.9137E-05
  1.9137E-05
  1.9137E-05
  1.9137E-05
  1.9137E-05
  1.9137E-05
  1.9137E-05
  7.1426E-05
  7.1426E-05
  7.1426E-05
  7.1426E-05
  7.1426E-05
  7.1426E-05
  7.1426E-05
  7.1426E-05
  7.1426E-05
  2.6658E-04
  2.6658E-04
  2.6658E-04
  2.6658E-04
  2.6658E-04
  2.6658E-04
  2.6658E-04
  2.6658E-04
  2.6658E-04
  9.9496E-04
  9.9496E-04
  9.9496E-04
  9.9496E-04
  9.9496E-04
  9.9496E-04
  9.9496E-04
  9.9496E-04
  9.9496E-04
  3.7135E-03
  3.7135E-03
  3.7135E-03
  3.7135E-03
  3.7135E-03
  3.7135E-03
  3.7135E-03
  3.7135E-03
  3.7135E-03
  1.3860E-02
  1.3860E-02
  1.3860E-02
  1.3860E-02
  1.3860E-02
  1.3860E-02
  1.3860E-02
  1.3860E-02
  1.3860E-02
  5.1729E-02
  5.1729E-02
  5.1729E-02
  5.1729E-02
  5.1729E-02
  5.1729E-02
  5.1729E-02
  5.1729E-02
  5.1729E-02
  8.1595E-02
  8.1595E-02
  8.1595E-02
  8.1595E-02
  8.1595E-02
  8.1595E-02
  8.1595E-02
  8.1595E-02
  8.1595E-02
   6.9000E-03
  8.3430E-13
  8.3430E-13
  8.3430E-13
  8.3430E-13
  8.3430E-13
  8.3430E-13
  8.3430E-13
  8.3430E-13
  8.3430E-13
  2.5032E-12
  2.5032E-12
  2.5032E-12
  2.5032E-12
  2.5032E-12
  2.5032E-12
  2.5032E-12
  2.5032E-12
  2.5032E-12
  1.0013E-11
  1.0013E-11
  1.0013E-11
  1.0013E-11
  1.0013E-11
  1.0013E-11
  1.0013E-11
  1.0013E-11
  1.0013E-11
  3.7553E-11
  3.7553E-11
  3.7553E-11
  3.7553E-11
  3.7553E-11
  3.7553E-11
  3.7553E-11
  3.7553E-11
  3.7553E-11
  1.4021E-10
  1.4021E-10
  1.4021E-10
  1.4021E-10
  1.4021E-10
  1.4021E-10
  1.4021E-10
  1.4021E-10
  1.4021E-10
  5.2330E-10
  5.2330E-10
  5.2330E-10
  5.2330E-10
  5.2330E-10
  5.2330E-10
  5.2330E-10
  5.2330E-10
  5.2330E-10
  1.9531E-09
  1.9531E-09
  1.9531E-09
  1.9531E-09
  1.9531E-09
  1.9531E-09
  1.9531E-09
  1.9531E-09
  1.9531E-09
  7.2896E-09
  7.2896E-09
  7.2896E-09
  7.2896E-09
  7.2896E-09
  7.2896E-09
  7.2896E-09
  7.2896E-09
  7.2896E-09
  2.7207E-08
  2.7207E-08
  2.7207E-08
  2.7207E-08
  2.7207E-08
  2.7207E-08
  2.7207E-08
  2.7207E-08
  2.7207E-08
  1.0154E-07
  1.0154E-07
  1.0154E-07
  1.0154E-07
  1.0154E-07
  1.0154E-07
  1.0154E-07
  1.0154E-07
  1.0154E-07
  3.7899E-07
  3.7899E-07
  3.7899E-07
  3.7899E-07
  3.7899E-07
  3.7899E-07
  3.7899E-07
  3.7899E-07
  3.7899E-07
  1.4145E-06
  1.4145E-06
  1.4145E-06
  1.4145E-06
  1.4145E-06
  1.4145E-06
  1.4145E-06
  1.4145E-06
  1.4145E-06
  5.2794E-06
  5.2794E-06
  5.2794E-06
  5.2794E-06
  5.2794E-06
  5.2794E-06
  5.2794E-06
  5.2794E-06
  5.2794E-06
  1.9704E-05
  1.9704E-05
  1.9704E-05
  1.9704E-05
  1.9704E-05
  1.9704E-05
  1.9704E-05
  1.9704E-05
  1.9704E-05
  7.3542E-05
  7.3542E-05
  7.3542E-05
  7.3542E-05
  7.3542E-05
  7.3542E-05
  7.3542E-05
  7.3542E-05
  7.3542E-05
  2.7448E-04
  2.7448E-04
  2.7448E-04
  2.7448E-04
  2.7448E-04
  2.7448E-04
  2.7448E-04
  2.7448E-04
  2.7448E-04
  1.0244E-03
  1.0244E-03
  1.0244E-03
  1.0244E-03
  1.0244E-03
  1.0244E-03
  1.0244E-03
  1.0244E-03
  1.0244E-03
  3.8235E-03
  3.8235E-03
  3.8235E-03
  3.8235E-03
  3.8235E-03
  3.8235E-03
  3.8235E-03
  3.8235E-03
  3.8235E-03
  1.4270E-02
  1.4270E-02
  1.4270E-02
  1.4270E-02
  1.4270E-02
  1.4270E-02
  1.4270E-02
  1.4270E-02
  1.4270E-02
  5.3261E-02
  5.3261E-02
  5.3261E-02
  5.3261E-02
  5.3261E-02
  5.3261E-02
  5.3261E-02
  5.3261E-02
  5.3261E-02
  8.4013E-02
  8.4013E-02
  8.4013E-02
  8.4013E-02
  8.4013E-02
  8.4013E-02
  8.4013E-02
  8.4013E-02
  8.4013E-02
   7.0000E-03
  8.5863E-13
  8.5863E-13
  8.5863E-13
  8.5863E-13
  8.5863E-13
  8.5863E-13
  8.5863E-13
  8.5863E-13
  8.5863E-13
  2.5762E-12
  2.5762E-12
  2.5762E-12
  2.5762E-12
  2.5762E-12
  2.5762E-12
  2.5762E-12
  2.5762E-12
  2.5762E-12
  1.0305E-11
  1.0305E-11
  1.0305E-11
  1.0305E-11
  1.0305E-11
  1.0305E-11
  1.0305E-11
  1.0305E-11
  1.0305E-11
  3.8648E-11
  3.8648E-11
  3.8648E-11
  3.8648E-11
  3.8648E-11
  3.8648E-11
  3.8648E-11
  3.8648E-11
  3.8648E-11
  1.4430E-10
  1.4430E-10
  1.4430E-10
  1.4430E-10
  1.4430E-10
  1.4430E-10
  1.4430E-10
  1.4430E-10
  1.4430E-10
  5.3857E-10
  5.3857E-10
  5.3857E-10
  5.3857E-10
  5.3857E-10
  5.3857E-10
  5.3857E-10
  5.3857E-10
  5.3857E-10
  2.0101E-09
  2.0101E-09
  2.0101E-09
  2.0101E-09
  2.0101E-09
  2.0101E-09
  2.0101E-09
  2.0101E-09
  2.0101E-09
  7.5023E-09
  7.5023E-09
  7.5023E-09
  7.5023E-09
  7.5023E-09
  7.5023E-09
  7.5023E-09
  7.5023E-09
  7.5023E-09
  2.8001E-08
  2.8001E-08
  2.8001E-08
  2.8001E-08
  2.8001E-08
  2.8001E-08
  2.8001E-08
  2.8001E-08
  2.8001E-08
  1.0451E-07
  1.0451E-07
  1.0451E-07
  1.0451E-07
  1.0451E-07
  1.0451E-07
  1.0451E-07
  1.0451E-07
  1.0451E-07
  3.9005E-07
  3.9005E-07
  3.9005E-07
  3.9005E-07
  3.9005E-07
  3.9005E-07
  3.9005E-07
  3.9005E-07
  3.9005E-07
  1.4558E-06
  1.4558E-06
  1.4558E-06
  1.4558E-06
  1.4558E-06
  1.4558E-06
  1.4558E-06
  1.4558E-06
  1.4558E-06
  5.4334E-06
  5.4334E-06
  5.4334E-06
  5.4334E-06
  5.4334E-06
  5.4334E-06
  5.4334E-06
  5.4334E-06
  5.4334E-06
  2.0279E-05
  2.0279E-05
  2.0279E-05
  2.0279E-05
  2.0279E-05
  2.0279E-05
  2.0279E-05
  2.0279E-05
  2.0279E-05
  7.5688E-05
  7.5688E-05
  7.5688E-05
  7.5688E-05
  7.5688E-05
  7.5688E-05
  7.5688E-05
  7.5688E-05
  7.5688E-05
  2.8249E-04
  2.8249E-04
  2.8249E-04
  2.8249E-04
  2.8249E-04
  2.8249E-04
  2.8249E-04
  2.8249E-04
  2.8249E-04
  1.0543E-03
  1.0543E-03
  1.0543E-03
  1.0543E-03
  1.0543E-03
  1.0543E-03
  1.0543E-03
  1.0543E-03
  1.0543E-03
  3.9351E-03
  3.9351E-03
  3.9351E-03
  3.9351E-03
  3.9351E-03
  3.9351E-03
  3.9351E-03
  3.9351E-03
  3.9351E-03
  1.4687E-02
  1.4687E-02
  1.4687E-02
  1.4687E-02
  1.4687E-02
  1.4687E-02
  1.4687E-02
  1.4687E-02
  1.4687E-02
  5.4816E-02
  5.4816E-02
  5.4816E-02
  5.4816E-02
  5.4816E-02
  5.4816E-02
  5.4816E-02
  5.4816E-02
  5.4816E-02
  8.6465E-02
  8.6465E-02
  8.6465E-02
  8.6465E-02
  8.6465E-02
  8.6465E-02
  8.6465E-02
  8.6465E-02
  8.6465E-02
   7.1000E-03
  8.8330E-13
  8.8330E-13
  8.8330E-13
  8.8330E-13
  8.8330E-13
  8.8330E-13
  8.8330E-13
  8.8330E-13
  8.8330E-13
  2.6502E-12
  2.6502E-12
  2.6502E-12
  2.6502E-12
  2.6502E-12
  2.6502E-12
  2.6502E-12
  2.6502E-12
  2.6502E-12
  1.0602E-11
  1.0602E-11
  1.0602E-11
  1.0602E-11
  1.0602E-11
  1.0602E-11
  1.0602E-11
  1.0602E-11
  1.0602E-11
  3.9759E-11
  3.9759E-11
  3.9759E-11
  3.9759E-11
  3.9759E-11
  3.9759E-11
  3.9759E-11
  3.9759E-11
  3.9759E-11
  1.4844E-10
  1.4844E-10
  1.4844E-10
  1.4844E-10
  1.4844E-10
  1.4844E-10
  1.4844E-10
  1.4844E-10
  1.4844E-10
  5.5405E-10
  5.5405E-10
  5.5405E-10
  5.5405E-10
  5.5405E-10
  5.5405E-10
  5.5405E-10
  5.5405E-10
  5.5405E-10
  2.0679E-09
  2.0679E-09
  2.0679E-09
  2.0679E-09
  2.0679E-09
  2.0679E-09
  2.0679E-09
  2.0679E-09
  2.0679E-09
  7.7180E-09
  7.7180E-09
  7.7180E-09
  7.7180E-09
  7.7180E-09
  7.7180E-09
  7.7180E-09
  7.7180E-09
  7.7180E-09
  2.8806E-08
  2.8806E-08
  2.8806E-08
  2.8806E-08
  2.8806E-08
  2.8806E-08
  2.8806E-08
  2.8806E-08
  2.8806E-08
  1.0751E-07
  1.0751E-07
  1.0751E-07
  1.0751E-07
  1.0751E-07
  1.0751E-07
  1.0751E-07
  1.0751E-07
  1.0751E-07
  4.0127E-07
  4.0127E-07
  4.0127E-07
  4.0127E-07
  4.0127E-07
  4.0127E-07
  4.0127E-07
  4.0127E-07
  4.0127E-07
  1.4977E-06
  1.4977E-06
  1.4977E-06
  1.4977E-06
  1.4977E-06
  1.4977E-06
  1.4977E-06
  1.4977E-06
  1.4977E-06
  5.5897E-06
  5.5897E-06
  5.5897E-06
  5.5897E-06
  5.5897E-06
  5.5897E-06
  5.5897E-06
  5.5897E-06
  5.5897E-06
  2.0862E-05
  2.0862E-05
  2.0862E-05
  2.0862E-05
  2.0862E-05
  2.0862E-05
  2.0862E-05
  2.0862E-05
  2.0862E-05
  7.7865E-05
  7.7865E-05
  7.7865E-05
  7.7865E-05
  7.7865E-05
  7.7865E-05
  7.7865E-05
  7.7865E-05
  7.7865E-05
  2.9062E-04
  2.9062E-04
  2.9062E-04
  2.9062E-04
  2.9062E-04
  2.9062E-04
  2.9062E-04
  2.9062E-04
  2.9062E-04
  1.0847E-03
  1.0847E-03
  1.0847E-03
  1.0847E-03
  1.0847E-03
  1.0847E-03
  1.0847E-03
  1.0847E-03
  1.0847E-03
  4.0483E-03
  4.0483E-03
  4.0483E-03
  4.0483E-03
  4.0483E-03
  4.0483E-03
  4.0483E-03
  4.0483E-03
  4.0483E-03
  1.5110E-02
  1.5110E-02
  1.5110E-02
  1.5110E-02
  1.5110E-02
  1.5110E-02
  1.5110E-02
  1.5110E-02
  1.5110E-02
  5.6393E-02
  5.6393E-02
  5.6393E-02
  5.6393E-02
  5.6393E-02
  5.6393E-02
  5.6393E-02
  5.6393E-02
  5.6393E-02
  8.8953E-02
  8.8953E-02
  8.8953E-02
  8.8953E-02
  8.8953E-02
  8.8953E-02
  8.8953E-02
  8.8953E-02
  8.8953E-02
   7.2000E-03
  9.0832E-13
  9.0832E-13
  9.0832E-13
  9.0832E-13
  9.0832E-13
  9.0832E-13
  9.0832E-13
  9.0832E-13
  9.0832E-13
  2.7253E-12
  2.7253E-12
  2.7253E-12
  2.7253E-12
  2.7253E-12
  2.7253E-12
  2.7253E-12
  2.7253E-12
  2.7253E-12
  1.0902E-11
  1.0902E-11
  1.0902E-11
  1.0902E-11
  1.0902E-11
  1.0902E-11
  1.0902E-11
  1.0902E-11
  1.0902E-11
  4.0885E-11
  4.0885E-11
  4.0885E-11
  4.0885E-11
  4.0885E-11
  4.0885E-11
  4.0885E-11
  4.0885E-11
  4.0885E-11
  1.5265E-10
  1.5265E-10
  1.5265E-10
  1.5265E-10
  1.5265E-10
  1.5265E-10
  1.5265E-10
  1.5265E-10
  1.5265E-10
  5.6975E-10
  5.6975E-10
  5.6975E-10
  5.6975E-10
  5.6975E-10
  5.6975E-10
  5.6975E-10
  5.6975E-10
  5.6975E-10
  2.1265E-09
  2.1265E-09
  2.1265E-09
  2.1265E-09
  2.1265E-09
  2.1265E-09
  2.1265E-09
  2.1265E-09
  2.1265E-09
  7.9367E-09
  7.9367E-09
  7.9367E-09
  7.9367E-09
  7.9367E-09
  7.9367E-09
  7.9367E-09
  7.9367E-09
  7.9367E-09
  2.9622E-08
  2.9622E-08
  2.9622E-08
  2.9622E-08
  2.9622E-08
  2.9622E-08
  2.9622E-08
  2.9622E-08
  2.9622E-08
  1.1056E-07
  1.1056E-07
  1.1056E-07
  1.1056E-07
  1.1056E-07
  1.1056E-07
  1.1056E-07
  1.1056E-07
  1.1056E-07
  4.1264E-07
  4.1264E-07
  4.1264E-07
  4.1264E-07
  4.1264E-07
  4.1264E-07
  4.1264E-07
  4.1264E-07
  4.1264E-07
  1.5401E-06
  1.5401E-06
  1.5401E-06
  1.5401E-06
  1.5401E-06
  1.5401E-06
  1.5401E-06
  1.5401E-06
  1.5401E-06
  5.7482E-06
  5.7482E-06
  5.7482E-06
  5.7482E-06
  5.7482E-06
  5.7482E-06
  5.7482E-06
  5.7482E-06
  5.7482E-06
  2.1454E-05
  2.1454E-05
  2.1454E-05
  2.1454E-05
  2.1454E-05
  2.1454E-05
  2.1454E-05
  2.1454E-05
  2.1454E-05
  8.0073E-05
  8.0073E-05
  8.0073E-05
  8.0073E-05
  8.0073E-05
  8.0073E-05
  8.0073E-05
  8.0073E-05
  8.0073E-05
  2.9886E-04
  2.9886E-04
  2.9886E-04
  2.9886E-04
  2.9886E-04
  2.9886E-04
  2.9886E-04
  2.9886E-04
  2.9886E-04
  1.1154E-03
  1.1154E-03
  1.1154E-03
  1.1154E-03
  1.1154E-03
  1.1154E-03
  1.1154E-03
  1.1154E-03
  1.1154E-03
  4.1631E-03
  4.1631E-03
  4.1631E-03
  4.1631E-03
  4.1631E-03
  4.1631E-03
  4.1631E-03
  4.1631E-03
  4.1631E-03
  1.5538E-02
  1.5538E-02
  1.5538E-02
  1.5538E-02
  1.5538E-02
  1.5538E-02
  1.5538E-02
  1.5538E-02
  1.5538E-02
  5.7993E-02
  5.7993E-02
  5.7993E-02
  5.7993E-02
  5.7993E-02
  5.7993E-02
  5.7993E-02
  5.7993E-02
  5.7993E-02
  9.1476E-02
  9.1476E-02
  9.1476E-02
  9.1476E-02
  9.1476E-02
  9.1476E-02
  9.1476E-02
  9.1476E-02
  9.1476E-02
   7.3000E-03
  9.3369E-13
  9.3369E-13
  9.3369E-13
  9.3369E-13
  9.3369E-13
  9.3369E-13
  9.3369E-13
  9.3369E-13
  9.3369E-13
  2.8014E-12
  2.8014E-12
  2.8014E-12
  2.8014E-12
  2.8014E-12
  2.8014E-12
  2.8014E-12
  2.8014E-12
  2.8014E-12
  1.1207E-11
  1.1207E-11
  1.1207E-11
  1.1207E-11
  1.1207E-11
  1.1207E-11
  1.1207E-11
  1.1207E-11
  1.1207E-11
  4.2028E-11
  4.2028E-11
  4.2028E-11
  4.2028E-11
  4.2028E-11
  4.2028E-11
  4.2028E-11
  4.2028E-11
  4.2028E-11
  1.5691E-10
  1.5691E-10
  1.5691E-10
  1.5691E-10
  1.5691E-10
  1.5691E-10
  1.5691E-10
  1.5691E-10
  1.5691E-10
  5.8567E-10
  5.8567E-10
  5.8567E-10
  5.8567E-10
  5.8567E-10
  5.8567E-10
  5.8567E-10
  5.8567E-10
  5.8567E-10
  2.1859E-09
  2.1859E-09
  2.1859E-09
  2.1859E-09
  2.1859E-09
  2.1859E-09
  2.1859E-09
  2.1859E-09
  2.1859E-09
  8.1585E-09
  8.1585E-09
  8.1585E-09
  8.1585E-09
  8.1585E-09
  8.1585E-09
  8.1585E-09
  8.1585E-09
  8.1585E-09
  3.0450E-08
  3.0450E-08
  3.0450E-08
  3.0450E-08
  3.0450E-08
  3.0450E-08
  3.0450E-08
  3.0450E-08
  3.0450E-08
  1.1365E-07
  1.1365E-07
  1.1365E-07
  1.1365E-07
  1.1365E-07
  1.1365E-07
  1.1365E-07
  1.1365E-07
  1.1365E-07
  4.2418E-07
  4.2418E-07
  4.2418E-07
  4.2418E-07
  4.2418E-07
  4.2418E-07
  4.2418E-07
  4.2418E-07
  4.2418E-07
  1.5832E-06
  1.5832E-06
  1.5832E-06
  1.5832E-06
  1.5832E-06
  1.5832E-06
  1.5832E-06
  1.5832E-06
  1.5832E-06
  5.9089E-06
  5.9089E-06
  5.9089E-06
  5.9089E-06
  5.9089E-06
  5.9089E-06
  5.9089E-06
  5.9089E-06
  5.9089E-06
  2.2054E-05
  2.2054E-05
  2.2054E-05
  2.2054E-05
  2.2054E-05
  2.2054E-05
  2.2054E-05
  2.2054E-05
  2.2054E-05
  8.2312E-05
  8.2312E-05
  8.2312E-05
  8.2312E-05
  8.2312E-05
  8.2312E-05
  8.2312E-05
  8.2312E-05
  8.2312E-05
  3.0721E-04
  3.0721E-04
  3.0721E-04
  3.0721E-04
  3.0721E-04
  3.0721E-04
  3.0721E-04
  3.0721E-04
  3.0721E-04
  1.1466E-03
  1.1466E-03
  1.1466E-03
  1.1466E-03
  1.1466E-03
  1.1466E-03
  1.1466E-03
  1.1466E-03
  1.1466E-03
  4.2795E-03
  4.2795E-03
  4.2795E-03
  4.2795E-03
  4.2795E-03
  4.2795E-03
  4.2795E-03
  4.2795E-03
  4.2795E-03
  1.5973E-02
  1.5973E-02
  1.5973E-02
  1.5973E-02
  1.5973E-02
  1.5973E-02
  1.5973E-02
  1.5973E-02
  1.5973E-02
  5.9615E-02
  5.9615E-02
  5.9615E-02
  5.9615E-02
  5.9615E-02
  5.9615E-02
  5.9615E-02
  5.9615E-02
  5.9615E-02
  9.4035E-02
  9.4035E-02
  9.4035E-02
  9.4035E-02
  9.4035E-02
  9.4035E-02
  9.4035E-02
  9.4035E-02
  9.4035E-02
   7.4000E-03
  9.5941E-13
  9.5941E-13
  9.5941E-13
  9.5941E-13
  9.5941E-13
  9.5941E-13
  9.5941E-13
  9.5941E-13
  9.5941E-13
  2.8786E-12
  2.8786E-12
  2.8786E-12
  2.8786E-12
  2.8786E-12
  2.8786E-12
  2.8786E-12
  2.8786E-12
  2.8786E-12
  1.1515E-11
  1.1515E-11
  1.1515E-11
  1.1515E-11
  1.1515E-11
  1.1515E-11
  1.1515E-11
  1.1515E-11
  1.1515E-11
  4.3185E-11
  4.3185E-11
  4.3185E-11
  4.3185E-11
  4.3185E-11
  4.3185E-11
  4.3185E-11
  4.3185E-11
  4.3185E-11
  1.6124E-10
  1.6124E-10
  1.6124E-10
  1.6124E-10
  1.6124E-10
  1.6124E-10
  1.6124E-10
  1.6124E-10
  1.6124E-10
  6.0181E-10
  6.0181E-10
  6.0181E-10
  6.0181E-10
  6.0181E-10
  6.0181E-10
  6.0181E-10
  6.0181E-10
  6.0181E-10
  2.2461E-09
  2.2461E-09
  2.2461E-09
  2.2461E-09
  2.2461E-09
  2.2461E-09
  2.2461E-09
  2.2461E-09
  2.2461E-09
  8.3833E-09
  8.3833E-09
  8.3833E-09
  8.3833E-09
  8.3833E-09
  8.3833E-09
  8.3833E-09
  8.3833E-09
  8.3833E-09
  3.1289E-08
  3.1289E-08
  3.1289E-08
  3.1289E-08
  3.1289E-08
  3.1289E-08
  3.1289E-08
  3.1289E-08
  3.1289E-08
  1.1678E-07
  1.1678E-07
  1.1678E-07
  1.1678E-07
  1.1678E-07
  1.1678E-07
  1.1678E-07
  1.1678E-07
  1.1678E-07
  4.3587E-07
  4.3587E-07
  4.3587E-07
  4.3587E-07
  4.3587E-07
  4.3587E-07
  4.3587E-07
  4.3587E-07
  4.3587E-07
  1.6268E-06
  1.6268E-06
  1.6268E-06
  1.6268E-06
  1.6268E-06
  1.6268E-06
  1.6268E-06
  1.6268E-06
  1.6268E-06
  6.0718E-06
  6.0718E-06
  6.0718E-06
  6.0718E-06
  6.0718E-06
  6.0718E-06
  6.0718E-06
  6.0718E-06
  6.0718E-06
  2.2662E-05
  2.2662E-05
  2.2662E-05
  2.2662E-05
  2.2662E-05
  2.2662E-05
  2.2662E-05
  2.2662E-05
  2.2662E-05
  8.4581E-05
  8.4581E-05
  8.4581E-05
  8.4581E-05
  8.4581E-05
  8.4581E-05
  8.4581E-05
  8.4581E-05
  8.4581E-05
  3.1568E-04
  3.1568E-04
  3.1568E-04
  3.1568E-04
  3.1568E-04
  3.1568E-04
  3.1568E-04
  3.1568E-04
  3.1568E-04
  1.1782E-03
  1.1782E-03
  1.1782E-03
  1.1782E-03
  1.1782E-03
  1.1782E-03
  1.1782E-03
  1.1782E-03
  1.1782E-03
  4.3976E-03
  4.3976E-03
  4.3976E-03
  4.3976E-03
  4.3976E-03
  4.3976E-03
  4.3976E-03
  4.3976E-03
  4.3976E-03
  1.6413E-02
  1.6413E-02
  1.6413E-02
  1.6413E-02
  1.6413E-02
  1.6413E-02
  1.6413E-02
  1.6413E-02
  1.6413E-02
  6.1259E-02
  6.1259E-02
  6.1259E-02
  6.1259E-02
  6.1259E-02
  6.1259E-02
  6.1259E-02
  6.1259E-02
  6.1259E-02
  9.6629E-02
  9.6629E-02
  9.6629E-02
  9.6629E-02
  9.6629E-02
  9.6629E-02
  9.6629E-02
  9.6629E-02
  9.6629E-02
   7.5000E-03
  9.8547E-13
  9.8547E-13
  9.8547E-13
  9.8547E-13
  9.8547E-13
  9.8547E-13
  9.8547E-13
  9.8547E-13
  9.8547E-13
  2.9568E-12
  2.9568E-12
  2.9568E-12
  2.9568E-12
  2.9568E-12
  2.9568E-12
  2.9568E-12
  2.9568E-12
  2.9568E-12
  1.1828E-11
  1.1828E-11
  1.1828E-11
  1.1828E-11
  1.1828E-11
  1.1828E-11
  1.1828E-11
  1.1828E-11
  1.1828E-11
  4.4359E-11
  4.4359E-11
  4.4359E-11
  4.4359E-11
  4.4359E-11
  4.4359E-11
  4.4359E-11
  4.4359E-11
  4.4359E-11
  1.6562E-10
  1.6562E-10
  1.6562E-10
  1.6562E-10
  1.6562E-10
  1.6562E-10
  1.6562E-10
  1.6562E-10
  1.6562E-10
  6.1816E-10
  6.1816E-10
  6.1816E-10
  6.1816E-10
  6.1816E-10
  6.1816E-10
  6.1816E-10
  6.1816E-10
  6.1816E-10
  2.3072E-09
  2.3072E-09
  2.3072E-09
  2.3072E-09
  2.3072E-09
  2.3072E-09
  2.3072E-09
  2.3072E-09
  2.3072E-09
  8.6112E-09
  8.6112E-09
  8.6112E-09
  8.6112E-09
  8.6112E-09
  8.6112E-09
  8.6112E-09
  8.6112E-09
  8.6112E-09
  3.2140E-08
  3.2140E-08
  3.2140E-08
  3.2140E-08
  3.2140E-08
  3.2140E-08
  3.2140E-08
  3.2140E-08
  3.2140E-08
  1.1996E-07
  1.1996E-07
  1.1996E-07
  1.1996E-07
  1.1996E-07
  1.1996E-07
  1.1996E-07
  1.1996E-07
  1.1996E-07
  4.4772E-07
  4.4772E-07
  4.4772E-07
  4.4772E-07
  4.4772E-07
  4.4772E-07
  4.4772E-07
  4.4772E-07
  4.4772E-07
  1.6710E-06
  1.6710E-06
  1.6710E-06
  1.6710E-06
  1.6710E-06
  1.6710E-06
  1.6710E-06
  1.6710E-06
  1.6710E-06
  6.2369E-06
  6.2369E-06
  6.2369E-06
  6.2369E-06
  6.2369E-06
  6.2369E-06
  6.2369E-06
  6.2369E-06
  6.2369E-06
  2.3278E-05
  2.3278E-05
  2.3278E-05
  2.3278E-05
  2.3278E-05
  2.3278E-05
  2.3278E-05
  2.3278E-05
  2.3278E-05
  8.6882E-05
  8.6882E-05
  8.6882E-05
  8.6882E-05
  8.6882E-05
  8.6882E-05
  8.6882E-05
  8.6882E-05
  8.6882E-05
  3.2427E-04
  3.2427E-04
  3.2427E-04
  3.2427E-04
  3.2427E-04
  3.2427E-04
  3.2427E-04
  3.2427E-04
  3.2427E-04
  1.2103E-03
  1.2103E-03
  1.2103E-03
  1.2103E-03
  1.2103E-03
  1.2103E-03
  1.2103E-03
  1.2103E-03
  1.2103E-03
  4.5172E-03
  4.5172E-03
  4.5172E-03
  4.5172E-03
  4.5172E-03
  4.5172E-03
  4.5172E-03
  4.5172E-03
  4.5172E-03
  1.6860E-02
  1.6860E-02
  1.6860E-02
  1.6860E-02
  1.6860E-02
  1.6860E-02
  1.6860E-02
  1.6860E-02
  1.6860E-02
  6.2926E-02
  6.2926E-02
  6.2926E-02
  6.2926E-02
  6.2926E-02
  6.2926E-02
  6.2926E-02
  6.2926E-02
  6.2926E-02
  9.9258E-02
  9.9258E-02
  9.9258E-02
  9.9258E-02
  9.9258E-02
  9.9258E-02
  9.9258E-02
  9.9258E-02
  9.9258E-02
   7.6000E-03
  1.0119E-12
  1.0119E-12
  1.0119E-12
  1.0119E-12
  1.0119E-12
  1.0119E-12
  1.0119E-12
  1.0119E-12
  1.0119E-12
  3.0360E-12
  3.0360E-12
  3.0360E-12
  3.0360E-12
  3.0360E-12
  3.0360E-12
  3.0360E-12
  3.0360E-12
  3.0360E-12
  1.2145E-11
  1.2145E-11
  1.2145E-11
  1.2145E-11
  1.2145E-11
  1.2145E-11
  1.2145E-11
  1.2145E-11
  1.2145E-11
  4.5548E-11
  4.5548E-11
  4.5548E-11
  4.5548E-11
  4.5548E-11
  4.5548E-11
  4.5548E-11
  4.5548E-11
  4.5548E-11
  1.7006E-10
  1.7006E-10
  1.7006E-10
  1.7006E-10
  1.7006E-10
  1.7006E-10
  1.7006E-10
  1.7006E-10
  1.7006E-10
  6.3474E-10
  6.3474E-10
  6.3474E-10
  6.3474E-10
  6.3474E-10
  6.3474E-10
  6.3474E-10
  6.3474E-10
  6.3474E-10
  2.3691E-09
  2.3691E-09
  2.3691E-09
  2.3691E-09
  2.3691E-09
  2.3691E-09
  2.3691E-09
  2.3691E-09
  2.3691E-09
  8.8421E-09
  8.8421E-09
  8.8421E-09
  8.8421E-09
  8.8421E-09
  8.8421E-09
  8.8421E-09
  8.8421E-09
  8.8421E-09
  3.3002E-08
  3.3002E-08
  3.3002E-08
  3.3002E-08
  3.3002E-08
  3.3002E-08
  3.3002E-08
  3.3002E-08
  3.3002E-08
  1.2317E-07
  1.2317E-07
  1.2317E-07
  1.2317E-07
  1.2317E-07
  1.2317E-07
  1.2317E-07
  1.2317E-07
  1.2317E-07
  4.5973E-07
  4.5973E-07
  4.5973E-07
  4.5973E-07
  4.5973E-07
  4.5973E-07
  4.5973E-07
  4.5973E-07
  4.5973E-07
  1.7159E-06
  1.7159E-06
  1.7159E-06
  1.7159E-06
  1.7159E-06
  1.7159E-06
  1.7159E-06
  1.7159E-06
  1.7159E-06
  6.4042E-06
  6.4042E-06
  6.4042E-06
  6.4042E-06
  6.4042E-06
  6.4042E-06
  6.4042E-06
  6.4042E-06
  6.4042E-06
  2.3903E-05
  2.3903E-05
  2.3903E-05
  2.3903E-05
  2.3903E-05
  2.3903E-05
  2.3903E-05
  2.3903E-05
  2.3903E-05
  8.9213E-05
  8.9213E-05
  8.9213E-05
  8.9213E-05
  8.9213E-05
  8.9213E-05
  8.9213E-05
  8.9213E-05
  8.9213E-05
  3.3297E-04
  3.3297E-04
  3.3297E-04
  3.3297E-04
  3.3297E-04
  3.3297E-04
  3.3297E-04
  3.3297E-04
  3.3297E-04
  1.2428E-03
  1.2428E-03
  1.2428E-03
  1.2428E-03
  1.2428E-03
  1.2428E-03
  1.2428E-03
  1.2428E-03
  1.2428E-03
  4.6384E-03
  4.6384E-03
  4.6384E-03
  4.6384E-03
  4.6384E-03
  4.6384E-03
  4.6384E-03
  4.6384E-03
  4.6384E-03
  1.7312E-02
  1.7312E-02
  1.7312E-02
  1.7312E-02
  1.7312E-02
  1.7312E-02
  1.7312E-02
  1.7312E-02
  1.7312E-02
  6.4615E-02
  6.4615E-02
  6.4615E-02
  6.4615E-02
  6.4615E-02
  6.4615E-02
  6.4615E-02
  6.4615E-02
  6.4615E-02
  1.0192E-01
  1.0192E-01
  1.0192E-01
  1.0192E-01
  1.0192E-01
  1.0192E-01
  1.0192E-01
  1.0192E-01
  1.0192E-01
   7.7000E-03
  1.0386E-12
  1.0386E-12
  1.0386E-12
  1.0386E-12
  1.0386E-12
  1.0386E-12
  1.0386E-12
  1.0386E-12
  1.0386E-12
  3.1163E-12
  3.1163E-12
  3.1163E-12
  3.1163E-12
  3.1163E-12
  3.1163E-12
  3.1163E-12
  3.1163E-12
  3.1163E-12
  1.2466E-11
  1.2466E-11
  1.2466E-11
  1.2466E-11
  1.2466E-11
  1.2466E-11
  1.2466E-11
  1.2466E-11
  1.2466E-11
  4.6753E-11
  4.6753E-11
  4.6753E-11
  4.6753E-11
  4.6753E-11
  4.6753E-11
  4.6753E-11
  4.6753E-11
  4.6753E-11
  1.7456E-10
  1.7456E-10
  1.7456E-10
  1.7456E-10
  1.7456E-10
  1.7456E-10
  1.7456E-10
  1.7456E-10
  1.7456E-10
  6.5153E-10
  6.5153E-10
  6.5153E-10
  6.5153E-10
  6.5153E-10
  6.5153E-10
  6.5153E-10
  6.5153E-10
  6.5153E-10
  2.4317E-09
  2.4317E-09
  2.4317E-09
  2.4317E-09
  2.4317E-09
  2.4317E-09
  2.4317E-09
  2.4317E-09
  2.4317E-09
  9.0761E-09
  9.0761E-09
  9.0761E-09
  9.0761E-09
  9.0761E-09
  9.0761E-09
  9.0761E-09
  9.0761E-09
  9.0761E-09
  3.3875E-08
  3.3875E-08
  3.3875E-08
  3.3875E-08
  3.3875E-08
  3.3875E-08
  3.3875E-08
  3.3875E-08
  3.3875E-08
  1.2643E-07
  1.2643E-07
  1.2643E-07
  1.2643E-07
  1.2643E-07
  1.2643E-07
  1.2643E-07
  1.2643E-07
  1.2643E-07
  4.7190E-07
  4.7190E-07
  4.7190E-07
  4.7190E-07
  4.7190E-07
  4.7190E-07
  4.7190E-07
  4.7190E-07
  4.7190E-07
  1.7613E-06
  1.7613E-06
  1.7613E-06
  1.7613E-06
  1.7613E-06
  1.7613E-06
  1.7613E-06
  1.7613E-06
  1.7613E-06
  6.5737E-06
  6.5737E-06
  6.5737E-06
  6.5737E-06
  6.5737E-06
  6.5737E-06
  6.5737E-06
  6.5737E-06
  6.5737E-06
  2.4535E-05
  2.4535E-05
  2.4535E-05
  2.4535E-05
  2.4535E-05
  2.4535E-05
  2.4535E-05
  2.4535E-05
  2.4535E-05
  9.1575E-05
  9.1575E-05
  9.1575E-05
  9.1575E-05
  9.1575E-05
  9.1575E-05
  9.1575E-05
  9.1575E-05
  9.1575E-05
  3.4179E-04
  3.4179E-04
  3.4179E-04
  3.4179E-04
  3.4179E-04
  3.4179E-04
  3.4179E-04
  3.4179E-04
  3.4179E-04
  1.2757E-03
  1.2757E-03
  1.2757E-03
  1.2757E-03
  1.2757E-03
  1.2757E-03
  1.2757E-03
  1.2757E-03
  1.2757E-03
  4.7613E-03
  4.7613E-03
  4.7613E-03
  4.7613E-03
  4.7613E-03
  4.7613E-03
  4.7613E-03
  4.7613E-03
  4.7613E-03
  1.7771E-02
  1.7771E-02
  1.7771E-02
  1.7771E-02
  1.7771E-02
  1.7771E-02
  1.7771E-02
  1.7771E-02
  1.7771E-02
  6.6327E-02
  6.6327E-02
  6.6327E-02
  6.6327E-02
  6.6327E-02
  6.6327E-02
  6.6327E-02
  6.6327E-02
  6.6327E-02
  1.0462E-01
  1.0462E-01
  1.0462E-01
  1.0462E-01
  1.0462E-01
  1.0462E-01
  1.0462E-01
  1.0462E-01
  1.0462E-01
   7.8000E-03
  1.0657E-12
  1.0657E-12
  1.0657E-12
  1.0657E-12
  1.0657E-12
  1.0657E-12
  1.0657E-12
  1.0657E-12
  1.0657E-12
  3.1977E-12
  3.1977E-12
  3.1977E-12
  3.1977E-12
  3.1977E-12
  3.1977E-12
  3.1977E-12
  3.1977E-12
  3.1977E-12
  1.2792E-11
  1.2792E-11
  1.2792E-11
  1.2792E-11
  1.2792E-11
  1.2792E-11
  1.2792E-11
  1.2792E-11
  1.2792E-11
  4.7974E-11
  4.7974E-11
  4.7974E-11
  4.7974E-11
  4.7974E-11
  4.7974E-11
  4.7974E-11
  4.7974E-11
  4.7974E-11
  1.7912E-10
  1.7912E-10
  1.7912E-10
  1.7912E-10
  1.7912E-10
  1.7912E-10
  1.7912E-10
  1.7912E-10
  1.7912E-10
  6.6854E-10
  6.6854E-10
  6.6854E-10
  6.6854E-10
  6.6854E-10
  6.6854E-10
  6.6854E-10
  6.6854E-10
  6.6854E-10
  2.4952E-09
  2.4952E-09
  2.4952E-09
  2.4952E-09
  2.4952E-09
  2.4952E-09
  2.4952E-09
  2.4952E-09
  2.4952E-09
  9.3131E-09
  9.3131E-09
  9.3131E-09
  9.3131E-09
  9.3131E-09
  9.3131E-09
  9.3131E-09
  9.3131E-09
  9.3131E-09
  3.4760E-08
  3.4760E-08
  3.4760E-08
  3.4760E-08
  3.4760E-08
  3.4760E-08
  3.4760E-08
  3.4760E-08
  3.4760E-08
  1.2974E-07
  1.2974E-07
  1.2974E-07
  1.2974E-07
  1.2974E-07
  1.2974E-07
  1.2974E-07
  1.2974E-07
  1.2974E-07
  4.8422E-07
  4.8422E-07
  4.8422E-07
  4.8422E-07
  4.8422E-07
  4.8422E-07
  4.8422E-07
  4.8422E-07
  4.8422E-07
  1.8073E-06
  1.8073E-06
  1.8073E-06
  1.8073E-06
  1.8073E-06
  1.8073E-06
  1.8073E-06
  1.8073E-06
  1.8073E-06
  6.7455E-06
  6.7455E-06
  6.7455E-06
  6.7455E-06
  6.7455E-06
  6.7455E-06
  6.7455E-06
  6.7455E-06
  6.7455E-06
  2.5177E-05
  2.5177E-05
  2.5177E-05
  2.5177E-05
  2.5177E-05
  2.5177E-05
  2.5177E-05
  2.5177E-05
  2.5177E-05
  9.3968E-05
  9.3968E-05
  9.3968E-05
  9.3968E-05
  9.3968E-05
  9.3968E-05
  9.3968E-05
  9.3968E-05
  9.3968E-05
  3.5072E-04
  3.5072E-04
  3.5072E-04
  3.5072E-04
  3.5072E-04
  3.5072E-04
  3.5072E-04
  3.5072E-04
  3.5072E-04
  1.3090E-03
  1.3090E-03
  1.3090E-03
  1.3090E-03
  1.3090E-03
  1.3090E-03
  1.3090E-03
  1.3090E-03
  1.3090E-03
  4.8857E-03
  4.8857E-03
  4.8857E-03
  4.8857E-03
  4.8857E-03
  4.8857E-03
  4.8857E-03
  4.8857E-03
  4.8857E-03
  1.8235E-02
  1.8235E-02
  1.8235E-02
  1.8235E-02
  1.8235E-02
  1.8235E-02
  1.8235E-02
  1.8235E-02
  1.8235E-02
  6.8060E-02
  6.8060E-02
  6.8060E-02
  6.8060E-02
  6.8060E-02
  6.8060E-02
  6.8060E-02
  6.8060E-02
  6.8060E-02
  1.0736E-01
  1.0736E-01
  1.0736E-01
  1.0736E-01
  1.0736E-01
  1.0736E-01
  1.0736E-01
  1.0736E-01
  1.0736E-01
   7.9000E-03
  1.0932E-12
  1.0932E-12
  1.0932E-12
  1.0932E-12
  1.0932E-12
  1.0932E-12
  1.0932E-12
  1.0932E-12
  1.0932E-12
  3.2801E-12
  3.2801E-12
  3.2801E-12
  3.2801E-12
  3.2801E-12
  3.2801E-12
  3.2801E-12
  3.2801E-12
  3.2801E-12
  1.3122E-11
  1.3122E-11
  1.3122E-11
  1.3122E-11
  1.3122E-11
  1.3122E-11
  1.3122E-11
  1.3122E-11
  1.3122E-11
  4.9210E-11
  4.9210E-11
  4.9210E-11
  4.9210E-11
  4.9210E-11
  4.9210E-11
  4.9210E-11
  4.9210E-11
  4.9210E-11
  1.8373E-10
  1.8373E-10
  1.8373E-10
  1.8373E-10
  1.8373E-10
  1.8373E-10
  1.8373E-10
  1.8373E-10
  1.8373E-10
  6.8577E-10
  6.8577E-10
  6.8577E-10
  6.8577E-10
  6.8577E-10
  6.8577E-10
  6.8577E-10
  6.8577E-10
  6.8577E-10
  2.5596E-09
  2.5596E-09
  2.5596E-09
  2.5596E-09
  2.5596E-09
  2.5596E-09
  2.5596E-09
  2.5596E-09
  2.5596E-09
  9.5532E-09
  9.5532E-09
  9.5532E-09
  9.5532E-09
  9.5532E-09
  9.5532E-09
  9.5532E-09
  9.5532E-09
  9.5532E-09
  3.5656E-08
  3.5656E-08
  3.5656E-08
  3.5656E-08
  3.5656E-08
  3.5656E-08
  3.5656E-08
  3.5656E-08
  3.5656E-08
  1.3308E-07
  1.3308E-07
  1.3308E-07
  1.3308E-07
  1.3308E-07
  1.3308E-07
  1.3308E-07
  1.3308E-07
  1.3308E-07
  4.9671E-07
  4.9671E-07
  4.9671E-07
  4.9671E-07
  4.9671E-07
  4.9671E-07
  4.9671E-07
  4.9671E-07
  4.9671E-07
  1.8539E-06
  1.8539E-06
  1.8539E-06
  1.8539E-06
  1.8539E-06
  1.8539E-06
  1.8539E-06
  1.8539E-06
  1.8539E-06
  6.9194E-06
  6.9194E-06
  6.9194E-06
  6.9194E-06
  6.9194E-06
  6.9194E-06
  6.9194E-06
  6.9194E-06
  6.9194E-06
  2.5826E-05
  2.5826E-05
  2.5826E-05
  2.5826E-05
  2.5826E-05
  2.5826E-05
  2.5826E-05
  2.5826E-05
  2.5826E-05
  9.6391E-05
  9.6391E-05
  9.6391E-05
  9.6391E-05
  9.6391E-05
  9.6391E-05
  9.6391E-05
  9.6391E-05
  9.6391E-05
  3.5977E-04
  3.5977E-04
  3.5977E-04
  3.5977E-04
  3.5977E-04
  3.5977E-04
  3.5977E-04
  3.5977E-04
  3.5977E-04
  1.3428E-03
  1.3428E-03
  1.3428E-03
  1.3428E-03
  1.3428E-03
  1.3428E-03
  1.3428E-03
  1.3428E-03
  1.3428E-03
  5.0118E-03
  5.0118E-03
  5.0118E-03
  5.0118E-03
  5.0118E-03
  5.0118E-03
  5.0118E-03
  5.0118E-03
  5.0118E-03
  1.8706E-02
  1.8706E-02
  1.8706E-02
  1.8706E-02
  1.8706E-02
  1.8706E-02
  1.8706E-02
  1.8706E-02
  1.8706E-02
  6.9817E-02
  6.9817E-02
  6.9817E-02
  6.9817E-02
  6.9817E-02
  6.9817E-02
  6.9817E-02
  6.9817E-02
  6.9817E-02
  1.1013E-01
  1.1013E-01
  1.1013E-01
  1.1013E-01
  1.1013E-01
  1.1013E-01
  1.1013E-01
  1.1013E-01
  1.1013E-01
   8.0000E-03
  1.1210E-12
  1.1210E-12
  1.1210E-12
  1.1210E-12
  1.1210E-12
  1.1210E-12
  1.1210E-12
  1.1210E-12
  1.1210E-12
  3.3635E-12
  3.3635E-12
  3.3635E-12
  3.3635E-12
  3.3635E-12
  3.3635E-12
  3.3635E-12
  3.3635E-12
  3.3635E-12
  1.3455E-11
  1.3455E-11
  1.3455E-11
  1.3455E-11
  1.3455E-11
  1.3455E-11
  1.3455E-11
  1.3455E-11
  1.3455E-11
  5.0462E-11
  5.0462E-11
  5.0462E-11
  5.0462E-11
  5.0462E-11
  5.0462E-11
  5.0462E-11
  5.0462E-11
  5.0462E-11
  1.8841E-10
  1.8841E-10
  1.8841E-10
  1.8841E-10
  1.8841E-10
  1.8841E-10
  1.8841E-10
  1.8841E-10
  1.8841E-10
  7.0322E-10
  7.0322E-10
  7.0322E-10
  7.0322E-10
  7.0322E-10
  7.0322E-10
  7.0322E-10
  7.0322E-10
  7.0322E-10
  2.6247E-09
  2.6247E-09
  2.6247E-09
  2.6247E-09
  2.6247E-09
  2.6247E-09
  2.6247E-09
  2.6247E-09
  2.6247E-09
  9.7963E-09
  9.7963E-09
  9.7963E-09
  9.7963E-09
  9.7963E-09
  9.7963E-09
  9.7963E-09
  9.7963E-09
  9.7963E-09
  3.6564E-08
  3.6564E-08
  3.6564E-08
  3.6564E-08
  3.6564E-08
  3.6564E-08
  3.6564E-08
  3.6564E-08
  3.6564E-08
  1.3647E-07
  1.3647E-07
  1.3647E-07
  1.3647E-07
  1.3647E-07
  1.3647E-07
  1.3647E-07
  1.3647E-07
  1.3647E-07
  5.0935E-07
  5.0935E-07
  5.0935E-07
  5.0935E-07
  5.0935E-07
  5.0935E-07
  5.0935E-07
  5.0935E-07
  5.0935E-07
  1.9011E-06
  1.9011E-06
  1.9011E-06
  1.9011E-06
  1.9011E-06
  1.9011E-06
  1.9011E-06
  1.9011E-06
  1.9011E-06
  7.0956E-06
  7.0956E-06
  7.0956E-06
  7.0956E-06
  7.0956E-06
  7.0956E-06
  7.0956E-06
  7.0956E-06
  7.0956E-06
  2.6483E-05
  2.6483E-05
  2.6483E-05
  2.6483E-05
  2.6483E-05
  2.6483E-05
  2.6483E-05
  2.6483E-05
  2.6483E-05
  9.8846E-05
  9.8846E-05
  9.8846E-05
  9.8846E-05
  9.8846E-05
  9.8846E-05
  9.8846E-05
  9.8846E-05
  9.8846E-05
  3.6893E-04
  3.6893E-04
  3.6893E-04
  3.6893E-04
  3.6893E-04
  3.6893E-04
  3.6893E-04
  3.6893E-04
  3.6893E-04
  1.3770E-03
  1.3770E-03
  1.3770E-03
  1.3770E-03
  1.3770E-03
  1.3770E-03
  1.3770E-03
  1.3770E-03
  1.3770E-03
  5.1394E-03
  5.1394E-03
  5.1394E-03
  5.1394E-03
  5.1394E-03
  5.1394E-03
  5.1394E-03
  5.1394E-03
  5.1394E-03
  1.9182E-02
  1.9182E-02
  1.9182E-02
  1.9182E-02
  1.9182E-02
  1.9182E-02
  1.9182E-02
  1.9182E-02
  1.9182E-02
  7.1595E-02
  7.1595E-02
  7.1595E-02
  7.1595E-02
  7.1595E-02
  7.1595E-02
  7.1595E-02
  7.1595E-02
  7.1595E-02
  1.1293E-01
  1.1293E-01
  1.1293E-01
  1.1293E-01
  1.1293E-01
  1.1293E-01
  1.1293E-01
  1.1293E-01
  1.1293E-01
   8.1000E-03
  1.1492E-12
  1.1492E-12
  1.1492E-12
  1.1492E-12
  1.1492E-12
  1.1492E-12
  1.1492E-12
  1.1492E-12
  1.1492E-12
  3.4480E-12
  3.4480E-12
  3.4480E-12
  3.4480E-12
  3.4480E-12
  3.4480E-12
  3.4480E-12
  3.4480E-12
  3.4480E-12
  1.3793E-11
  1.3793E-11
  1.3793E-11
  1.3793E-11
  1.3793E-11
  1.3793E-11
  1.3793E-11
  1.3793E-11
  1.3793E-11
  5.1729E-11
  5.1729E-11
  5.1729E-11
  5.1729E-11
  5.1729E-11
  5.1729E-11
  5.1729E-11
  5.1729E-11
  5.1729E-11
  1.9314E-10
  1.9314E-10
  1.9314E-10
  1.9314E-10
  1.9314E-10
  1.9314E-10
  1.9314E-10
  1.9314E-10
  1.9314E-10
  7.2089E-10
  7.2089E-10
  7.2089E-10
  7.2089E-10
  7.2089E-10
  7.2089E-10
  7.2089E-10
  7.2089E-10
  7.2089E-10
  2.6906E-09
  2.6906E-09
  2.6906E-09
  2.6906E-09
  2.6906E-09
  2.6906E-09
  2.6906E-09
  2.6906E-09
  2.6906E-09
  1.0042E-08
  1.0042E-08
  1.0042E-08
  1.0042E-08
  1.0042E-08
  1.0042E-08
  1.0042E-08
  1.0042E-08
  1.0042E-08
  3.7482E-08
  3.7482E-08
  3.7482E-08
  3.7482E-08
  3.7482E-08
  3.7482E-08
  3.7482E-08
  3.7482E-08
  3.7482E-08
  1.3990E-07
  1.3990E-07
  1.3990E-07
  1.3990E-07
  1.3990E-07
  1.3990E-07
  1.3990E-07
  1.3990E-07
  1.3990E-07
  5.2215E-07
  5.2215E-07
  5.2215E-07
  5.2215E-07
  5.2215E-07
  5.2215E-07
  5.2215E-07
  5.2215E-07
  5.2215E-07
  1.9489E-06
  1.9489E-06
  1.9489E-06
  1.9489E-06
  1.9489E-06
  1.9489E-06
  1.9489E-06
  1.9489E-06
  1.9489E-06
  7.2740E-06
  7.2740E-06
  7.2740E-06
  7.2740E-06
  7.2740E-06
  7.2740E-06
  7.2740E-06
  7.2740E-06
  7.2740E-06
  2.7149E-05
  2.7149E-05
  2.7149E-05
  2.7149E-05
  2.7149E-05
  2.7149E-05
  2.7149E-05
  2.7149E-05
  2.7149E-05
  1.0133E-04
  1.0133E-04
  1.0133E-04
  1.0133E-04
  1.0133E-04
  1.0133E-04
  1.0133E-04
  1.0133E-04
  1.0133E-04
  3.7821E-04
  3.7821E-04
  3.7821E-04
  3.7821E-04
  3.7821E-04
  3.7821E-04
  3.7821E-04
  3.7821E-04
  3.7821E-04
  1.4116E-03
  1.4116E-03
  1.4116E-03
  1.4116E-03
  1.4116E-03
  1.4116E-03
  1.4116E-03
  1.4116E-03
  1.4116E-03
  5.2687E-03
  5.2687E-03
  5.2687E-03
  5.2687E-03
  5.2687E-03
  5.2687E-03
  5.2687E-03
  5.2687E-03
  5.2687E-03
  1.9665E-02
  1.9665E-02
  1.9665E-02
  1.9665E-02
  1.9665E-02
  1.9665E-02
  1.9665E-02
  1.9665E-02
  1.9665E-02
  7.3396E-02
  7.3396E-02
  7.3396E-02
  7.3396E-02
  7.3396E-02
  7.3396E-02
  7.3396E-02
  7.3396E-02
  7.3396E-02
  1.1577E-01
  1.1577E-01
  1.1577E-01
  1.1577E-01
  1.1577E-01
  1.1577E-01
  1.1577E-01
  1.1577E-01
  1.1577E-01
   8.2000E-03
  1.1776E-12
  1.1776E-12
  1.1776E-12
  1.1776E-12
  1.1776E-12
  1.1776E-12
  1.1776E-12
  1.1776E-12
  1.1776E-12
  3.5335E-12
  3.5335E-12
  3.5335E-12
  3.5335E-12
  3.5335E-12
  3.5335E-12
  3.5335E-12
  3.5335E-12
  3.5335E-12
  1.4135E-11
  1.4135E-11
  1.4135E-11
  1.4135E-11
  1.4135E-11
  1.4135E-11
  1.4135E-11
  1.4135E-11
  1.4135E-11
  5.3012E-11
  5.3012E-11
  5.3012E-11
  5.3012E-11
  5.3012E-11
  5.3012E-11
  5.3012E-11
  5.3012E-11
  5.3012E-11
  1.9793E-10
  1.9793E-10
  1.9793E-10
  1.9793E-10
  1.9793E-10
  1.9793E-10
  1.9793E-10
  1.9793E-10
  1.9793E-10
  7.3877E-10
  7.3877E-10
  7.3877E-10
  7.3877E-10
  7.3877E-10
  7.3877E-10
  7.3877E-10
  7.3877E-10
  7.3877E-10
  2.7574E-09
  2.7574E-09
  2.7574E-09
  2.7574E-09
  2.7574E-09
  2.7574E-09
  2.7574E-09
  2.7574E-09
  2.7574E-09
  1.0292E-08
  1.0292E-08
  1.0292E-08
  1.0292E-08
  1.0292E-08
  1.0292E-08
  1.0292E-08
  1.0292E-08
  1.0292E-08
  3.8413E-08
  3.8413E-08
  3.8413E-08
  3.8413E-08
  3.8413E-08
  3.8413E-08
  3.8413E-08
  3.8413E-08
  3.8413E-08
  1.4337E-07
  1.4337E-07
  1.4337E-07
  1.4337E-07
  1.4337E-07
  1.4337E-07
  1.4337E-07
  1.4337E-07
  1.4337E-07
  5.3512E-07
  5.3512E-07
  5.3512E-07
  5.3512E-07
  5.3512E-07
  5.3512E-07
  5.3512E-07
  5.3512E-07
  5.3512E-07
  1.9973E-06
  1.9973E-06
  1.9973E-06
  1.9973E-06
  1.9973E-06
  1.9973E-06
  1.9973E-06
  1.9973E-06
  1.9973E-06
  7.4546E-06
  7.4546E-06
  7.4546E-06
  7.4546E-06
  7.4546E-06
  7.4546E-06
  7.4546E-06
  7.4546E-06
  7.4546E-06
  2.7823E-05
  2.7823E-05
  2.7823E-05
  2.7823E-05
  2.7823E-05
  2.7823E-05
  2.7823E-05
  2.7823E-05
  2.7823E-05
  1.0385E-04
  1.0385E-04
  1.0385E-04
  1.0385E-04
  1.0385E-04
  1.0385E-04
  1.0385E-04
  1.0385E-04
  1.0385E-04
  3.8760E-04
  3.8760E-04
  3.8760E-04
  3.8760E-04
  3.8760E-04
  3.8760E-04
  3.8760E-04
  3.8760E-04
  3.8760E-04
  1.4467E-03
  1.4467E-03
  1.4467E-03
  1.4467E-03
  1.4467E-03
  1.4467E-03
  1.4467E-03
  1.4467E-03
  1.4467E-03
  5.3995E-03
  5.3995E-03
  5.3995E-03
  5.3995E-03
  5.3995E-03
  5.3995E-03
  5.3995E-03
  5.3995E-03
  5.3995E-03
  2.0153E-02
  2.0153E-02
  2.0153E-02
  2.0153E-02
  2.0153E-02
  2.0153E-02
  2.0153E-02
  2.0153E-02
  2.0153E-02
  7.5219E-02
  7.5219E-02
  7.5219E-02
  7.5219E-02
  7.5219E-02
  7.5219E-02
  7.5219E-02
  7.5219E-02
  7.5219E-02
  1.1865E-01
  1.1865E-01
  1.1865E-01
  1.1865E-01
  1.1865E-01
  1.1865E-01
  1.1865E-01
  1.1865E-01
  1.1865E-01
   8.3000E-03
  1.2065E-12
  1.2065E-12
  1.2065E-12
  1.2065E-12
  1.2065E-12
  1.2065E-12
  1.2065E-12
  1.2065E-12
  1.2065E-12
  3.6200E-12
  3.6200E-12
  3.6200E-12
  3.6200E-12
  3.6200E-12
  3.6200E-12
  3.6200E-12
  3.6200E-12
  3.6200E-12
  1.4482E-11
  1.4482E-11
  1.4482E-11
  1.4482E-11
  1.4482E-11
  1.4482E-11
  1.4482E-11
  1.4482E-11
  1.4482E-11
  5.4311E-11
  5.4311E-11
  5.4311E-11
  5.4311E-11
  5.4311E-11
  5.4311E-11
  5.4311E-11
  5.4311E-11
  5.4311E-11
  2.0278E-10
  2.0278E-10
  2.0278E-10
  2.0278E-10
  2.0278E-10
  2.0278E-10
  2.0278E-10
  2.0278E-10
  2.0278E-10
  7.5688E-10
  7.5688E-10
  7.5688E-10
  7.5688E-10
  7.5688E-10
  7.5688E-10
  7.5688E-10
  7.5688E-10
  7.5688E-10
  2.8250E-09
  2.8250E-09
  2.8250E-09
  2.8250E-09
  2.8250E-09
  2.8250E-09
  2.8250E-09
  2.8250E-09
  2.8250E-09
  1.0544E-08
  1.0544E-08
  1.0544E-08
  1.0544E-08
  1.0544E-08
  1.0544E-08
  1.0544E-08
  1.0544E-08
  1.0544E-08
  3.9354E-08
  3.9354E-08
  3.9354E-08
  3.9354E-08
  3.9354E-08
  3.9354E-08
  3.9354E-08
  3.9354E-08
  3.9354E-08
  1.4689E-07
  1.4689E-07
  1.4689E-07
  1.4689E-07
  1.4689E-07
  1.4689E-07
  1.4689E-07
  1.4689E-07
  1.4689E-07
  5.4823E-07
  5.4823E-07
  5.4823E-07
  5.4823E-07
  5.4823E-07
  5.4823E-07
  5.4823E-07
  5.4823E-07
  5.4823E-07
  2.0462E-06
  2.0462E-06
  2.0462E-06
  2.0462E-06
  2.0462E-06
  2.0462E-06
  2.0462E-06
  2.0462E-06
  2.0462E-06
  7.6373E-06
  7.6373E-06
  7.6373E-06
  7.6373E-06
  7.6373E-06
  7.6373E-06
  7.6373E-06
  7.6373E-06
  7.6373E-06
  2.8506E-05
  2.8506E-05
  2.8506E-05
  2.8506E-05
  2.8506E-05
  2.8506E-05
  2.8506E-05
  2.8506E-05
  2.8506E-05
  1.0639E-04
  1.0639E-04
  1.0639E-04
  1.0639E-04
  1.0639E-04
  1.0639E-04
  1.0639E-04
  1.0639E-04
  1.0639E-04
  3.9711E-04
  3.9711E-04
  3.9711E-04
  3.9711E-04
  3.9711E-04
  3.9711E-04
  3.9711E-04
  3.9711E-04
  3.9711E-04
  1.4822E-03
  1.4822E-03
  1.4822E-03
  1.4822E-03
  1.4822E-03
  1.4822E-03
  1.4822E-03
  1.4822E-03
  1.4822E-03
  5.5320E-03
  5.5320E-03
  5.5320E-03
  5.5320E-03
  5.5320E-03
  5.5320E-03
  5.5320E-03
  5.5320E-03
  5.5320E-03
  2.0648E-02
  2.0648E-02
  2.0648E-02
  2.0648E-02
  2.0648E-02
  2.0648E-02
  2.0648E-02
  2.0648E-02
  2.0648E-02
  7.7065E-02
  7.7065E-02
  7.7065E-02
  7.7065E-02
  7.7065E-02
  7.7065E-02
  7.7065E-02
  7.7065E-02
  7.7065E-02
  1.2156E-01
  1.2156E-01
  1.2156E-01
  1.2156E-01
  1.2156E-01
  1.2156E-01
  1.2156E-01
  1.2156E-01
  1.2156E-01
   8.4000E-03
  1.2357E-12
  1.2357E-12
  1.2357E-12
  1.2357E-12
  1.2357E-12
  1.2357E-12
  1.2357E-12
  1.2357E-12
  1.2357E-12
  3.7076E-12
  3.7076E-12
  3.7076E-12
  3.7076E-12
  3.7076E-12
  3.7076E-12
  3.7076E-12
  3.7076E-12
  3.7076E-12
  1.4832E-11
  1.4832E-11
  1.4832E-11
  1.4832E-11
  1.4832E-11
  1.4832E-11
  1.4832E-11
  1.4832E-11
  1.4832E-11
  5.5626E-11
  5.5626E-11
  5.5626E-11
  5.5626E-11
  5.5626E-11
  5.5626E-11
  5.5626E-11
  5.5626E-11
  5.5626E-11
  2.0769E-10
  2.0769E-10
  2.0769E-10
  2.0769E-10
  2.0769E-10
  2.0769E-10
  2.0769E-10
  2.0769E-10
  2.0769E-10
  7.7520E-10
  7.7520E-10
  7.7520E-10
  7.7520E-10
  7.7520E-10
  7.7520E-10
  7.7520E-10
  7.7520E-10
  7.7520E-10
  2.8934E-09
  2.8934E-09
  2.8934E-09
  2.8934E-09
  2.8934E-09
  2.8934E-09
  2.8934E-09
  2.8934E-09
  2.8934E-09
  1.0799E-08
  1.0799E-08
  1.0799E-08
  1.0799E-08
  1.0799E-08
  1.0799E-08
  1.0799E-08
  1.0799E-08
  1.0799E-08
  4.0307E-08
  4.0307E-08
  4.0307E-08
  4.0307E-08
  4.0307E-08
  4.0307E-08
  4.0307E-08
  4.0307E-08
  4.0307E-08
  1.5044E-07
  1.5044E-07
  1.5044E-07
  1.5044E-07
  1.5044E-07
  1.5044E-07
  1.5044E-07
  1.5044E-07
  1.5044E-07
  5.6151E-07
  5.6151E-07
  5.6151E-07
  5.6151E-07
  5.6151E-07
  5.6151E-07
  5.6151E-07
  5.6151E-07
  5.6151E-07
  2.0958E-06
  2.0958E-06
  2.0958E-06
  2.0958E-06
  2.0958E-06
  2.0958E-06
  2.0958E-06
  2.0958E-06
  2.0958E-06
  7.8223E-06
  7.8223E-06
  7.8223E-06
  7.8223E-06
  7.8223E-06
  7.8223E-06
  7.8223E-06
  7.8223E-06
  7.8223E-06
  2.9196E-05
  2.9196E-05
  2.9196E-05
  2.9196E-05
  2.9196E-05
  2.9196E-05
  2.9196E-05
  2.9196E-05
  2.9196E-05
  1.0897E-04
  1.0897E-04
  1.0897E-04
  1.0897E-04
  1.0897E-04
  1.0897E-04
  1.0897E-04
  1.0897E-04
  1.0897E-04
  4.0673E-04
  4.0673E-04
  4.0673E-04
  4.0673E-04
  4.0673E-04
  4.0673E-04
  4.0673E-04
  4.0673E-04
  4.0673E-04
  1.5181E-03
  1.5181E-03
  1.5181E-03
  1.5181E-03
  1.5181E-03
  1.5181E-03
  1.5181E-03
  1.5181E-03
  1.5181E-03
  5.6661E-03
  5.6661E-03
  5.6661E-03
  5.6661E-03
  5.6661E-03
  5.6661E-03
  5.6661E-03
  5.6661E-03
  5.6661E-03
  2.1148E-02
  2.1148E-02
  2.1148E-02
  2.1148E-02
  2.1148E-02
  2.1148E-02
  2.1148E-02
  2.1148E-02
  2.1148E-02
  7.8933E-02
  7.8933E-02
  7.8933E-02
  7.8933E-02
  7.8933E-02
  7.8933E-02
  7.8933E-02
  7.8933E-02
  7.8933E-02
  1.2451E-01
  1.2451E-01
  1.2451E-01
  1.2451E-01
  1.2451E-01
  1.2451E-01
  1.2451E-01
  1.2451E-01
  1.2451E-01
   8.5000E-03
  1.2652E-12
  1.2652E-12
  1.2652E-12
  1.2652E-12
  1.2652E-12
  1.2652E-12
  1.2652E-12
  1.2652E-12
  1.2652E-12
  3.7963E-12
  3.7963E-12
  3.7963E-12
  3.7963E-12
  3.7963E-12
  3.7963E-12
  3.7963E-12
  3.7963E-12
  3.7963E-12
  1.5187E-11
  1.5187E-11
  1.5187E-11
  1.5187E-11
  1.5187E-11
  1.5187E-11
  1.5187E-11
  1.5187E-11
  1.5187E-11
  5.6956E-11
  5.6956E-11
  5.6956E-11
  5.6956E-11
  5.6956E-11
  5.6956E-11
  5.6956E-11
  5.6956E-11
  5.6956E-11
  2.1266E-10
  2.1266E-10
  2.1266E-10
  2.1266E-10
  2.1266E-10
  2.1266E-10
  2.1266E-10
  2.1266E-10
  2.1266E-10
  7.9374E-10
  7.9374E-10
  7.9374E-10
  7.9374E-10
  7.9374E-10
  7.9374E-10
  7.9374E-10
  7.9374E-10
  7.9374E-10
  2.9626E-09
  2.9626E-09
  2.9626E-09
  2.9626E-09
  2.9626E-09
  2.9626E-09
  2.9626E-09
  2.9626E-09
  2.9626E-09
  1.1058E-08
  1.1058E-08
  1.1058E-08
  1.1058E-08
  1.1058E-08
  1.1058E-08
  1.1058E-08
  1.1058E-08
  1.1058E-08
  4.1271E-08
  4.1271E-08
  4.1271E-08
  4.1271E-08
  4.1271E-08
  4.1271E-08
  4.1271E-08
  4.1271E-08
  4.1271E-08
  1.5404E-07
  1.5404E-07
  1.5404E-07
  1.5404E-07
  1.5404E-07
  1.5404E-07
  1.5404E-07
  1.5404E-07
  1.5404E-07
  5.7495E-07
  5.7495E-07
  5.7495E-07
  5.7495E-07
  5.7495E-07
  5.7495E-07
  5.7495E-07
  5.7495E-07
  5.7495E-07
  2.1459E-06
  2.1459E-06
  2.1459E-06
  2.1459E-06
  2.1459E-06
  2.1459E-06
  2.1459E-06
  2.1459E-06
  2.1459E-06
  8.0096E-06
  8.0096E-06
  8.0096E-06
  8.0096E-06
  8.0096E-06
  8.0096E-06
  8.0096E-06
  8.0096E-06
  8.0096E-06
  2.9895E-05
  2.9895E-05
  2.9895E-05
  2.9895E-05
  2.9895E-05
  2.9895E-05
  2.9895E-05
  2.9895E-05
  2.9895E-05
  1.1158E-04
  1.1158E-04
  1.1158E-04
  1.1158E-04
  1.1158E-04
  1.1158E-04
  1.1158E-04
  1.1158E-04
  1.1158E-04
  4.1646E-04
  4.1646E-04
  4.1646E-04
  4.1646E-04
  4.1646E-04
  4.1646E-04
  4.1646E-04
  4.1646E-04
  4.1646E-04
  1.5544E-03
  1.5544E-03
  1.5544E-03
  1.5544E-03
  1.5544E-03
  1.5544E-03
  1.5544E-03
  1.5544E-03
  1.5544E-03
  5.8017E-03
  5.8017E-03
  5.8017E-03
  5.8017E-03
  5.8017E-03
  5.8017E-03
  5.8017E-03
  5.8017E-03
  5.8017E-03
  2.1654E-02
  2.1654E-02
  2.1654E-02
  2.1654E-02
  2.1654E-02
  2.1654E-02
  2.1654E-02
  2.1654E-02
  2.1654E-02
  8.0824E-02
  8.0824E-02
  8.0824E-02
  8.0824E-02
  8.0824E-02
  8.0824E-02
  8.0824E-02
  8.0824E-02
  8.0824E-02
  1.2749E-01
  1.2749E-01
  1.2749E-01
  1.2749E-01
  1.2749E-01
  1.2749E-01
  1.2749E-01
  1.2749E-01
  1.2749E-01
   8.6000E-03
  1.2951E-12
  1.2951E-12
  1.2951E-12
  1.2951E-12
  1.2951E-12
  1.2951E-12
  1.2951E-12
  1.2951E-12
  1.2951E-12
  3.8859E-12
  3.8859E-12
  3.8859E-12
  3.8859E-12
  3.8859E-12
  3.8859E-12
  3.8859E-12
  3.8859E-12
  3.8859E-12
  1.5546E-11
  1.5546E-11
  1.5546E-11
  1.5546E-11
  1.5546E-11
  1.5546E-11
  1.5546E-11
  1.5546E-11
  1.5546E-11
  5.8302E-11
  5.8302E-11
  5.8302E-11
  5.8302E-11
  5.8302E-11
  5.8302E-11
  5.8302E-11
  5.8302E-11
  5.8302E-11
  2.1768E-10
  2.1768E-10
  2.1768E-10
  2.1768E-10
  2.1768E-10
  2.1768E-10
  2.1768E-10
  2.1768E-10
  2.1768E-10
  8.1250E-10
  8.1250E-10
  8.1250E-10
  8.1250E-10
  8.1250E-10
  8.1250E-10
  8.1250E-10
  8.1250E-10
  8.1250E-10
  3.0326E-09
  3.0326E-09
  3.0326E-09
  3.0326E-09
  3.0326E-09
  3.0326E-09
  3.0326E-09
  3.0326E-09
  3.0326E-09
  1.1319E-08
  1.1319E-08
  1.1319E-08
  1.1319E-08
  1.1319E-08
  1.1319E-08
  1.1319E-08
  1.1319E-08
  1.1319E-08
  4.2247E-08
  4.2247E-08
  4.2247E-08
  4.2247E-08
  4.2247E-08
  4.2247E-08
  4.2247E-08
  4.2247E-08
  4.2247E-08
  1.5768E-07
  1.5768E-07
  1.5768E-07
  1.5768E-07
  1.5768E-07
  1.5768E-07
  1.5768E-07
  1.5768E-07
  1.5768E-07
  5.8854E-07
  5.8854E-07
  5.8854E-07
  5.8854E-07
  5.8854E-07
  5.8854E-07
  5.8854E-07
  5.8854E-07
  5.8854E-07
  2.1967E-06
  2.1967E-06
  2.1967E-06
  2.1967E-06
  2.1967E-06
  2.1967E-06
  2.1967E-06
  2.1967E-06
  2.1967E-06
  8.1990E-06
  8.1990E-06
  8.1990E-06
  8.1990E-06
  8.1990E-06
  8.1990E-06
  8.1990E-06
  8.1990E-06
  8.1990E-06
  3.0602E-05
  3.0602E-05
  3.0602E-05
  3.0602E-05
  3.0602E-05
  3.0602E-05
  3.0602E-05
  3.0602E-05
  3.0602E-05
  1.1422E-04
  1.1422E-04
  1.1422E-04
  1.1422E-04
  1.1422E-04
  1.1422E-04
  1.1422E-04
  1.1422E-04
  1.1422E-04
  4.2632E-04
  4.2632E-04
  4.2632E-04
  4.2632E-04
  4.2632E-04
  4.2632E-04
  4.2632E-04
  4.2632E-04
  4.2632E-04
  1.5912E-03
  1.5912E-03
  1.5912E-03
  1.5912E-03
  1.5912E-03
  1.5912E-03
  1.5912E-03
  1.5912E-03
  1.5912E-03
  5.9390E-03
  5.9390E-03
  5.9390E-03
  5.9390E-03
  5.9390E-03
  5.9390E-03
  5.9390E-03
  5.9390E-03
  5.9390E-03
  2.2167E-02
  2.2167E-02
  2.2167E-02
  2.2167E-02
  2.2167E-02
  2.2167E-02
  2.2167E-02
  2.2167E-02
  2.2167E-02
  8.2736E-02
  8.2736E-02
  8.2736E-02
  8.2736E-02
  8.2736E-02
  8.2736E-02
  8.2736E-02
  8.2736E-02
  8.2736E-02
  1.3051E-01
  1.3051E-01
  1.3051E-01
  1.3051E-01
  1.3051E-01
  1.3051E-01
  1.3051E-01
  1.3051E-01
  1.3051E-01
   8.7000E-03
  1.3253E-12
  1.3253E-12
  1.3253E-12
  1.3253E-12
  1.3253E-12
  1.3253E-12
  1.3253E-12
  1.3253E-12
  1.3253E-12
  3.9767E-12
  3.9767E-12
  3.9767E-12
  3.9767E-12
  3.9767E-12
  3.9767E-12
  3.9767E-12
  3.9767E-12
  3.9767E-12
  1.5909E-11
  1.5909E-11
  1.5909E-11
  1.5909E-11
  1.5909E-11
  1.5909E-11
  1.5909E-11
  1.5909E-11
  1.5909E-11
  5.9663E-11
  5.9663E-11
  5.9663E-11
  5.9663E-11
  5.9663E-11
  5.9663E-11
  5.9663E-11
  5.9663E-11
  5.9663E-11
  2.2276E-10
  2.2276E-10
  2.2276E-10
  2.2276E-10
  2.2276E-10
  2.2276E-10
  2.2276E-10
  2.2276E-10
  2.2276E-10
  8.3148E-10
  8.3148E-10
  8.3148E-10
  8.3148E-10
  8.3148E-10
  8.3148E-10
  8.3148E-10
  8.3148E-10
  8.3148E-10
  3.1034E-09
  3.1034E-09
  3.1034E-09
  3.1034E-09
  3.1034E-09
  3.1034E-09
  3.1034E-09
  3.1034E-09
  3.1034E-09
  1.1583E-08
  1.1583E-08
  1.1583E-08
  1.1583E-08
  1.1583E-08
  1.1583E-08
  1.1583E-08
  1.1583E-08
  1.1583E-08
  4.3234E-08
  4.3234E-08
  4.3234E-08
  4.3234E-08
  4.3234E-08
  4.3234E-08
  4.3234E-08
  4.3234E-08
  4.3234E-08
  1.6137E-07
  1.6137E-07
  1.6137E-07
  1.6137E-07
  1.6137E-07
  1.6137E-07
  1.6137E-07
  1.6137E-07
  1.6137E-07
  6.0230E-07
  6.0230E-07
  6.0230E-07
  6.0230E-07
  6.0230E-07
  6.0230E-07
  6.0230E-07
  6.0230E-07
  6.0230E-07
  2.2480E-06
  2.2480E-06
  2.2480E-06
  2.2480E-06
  2.2480E-06
  2.2480E-06
  2.2480E-06
  2.2480E-06
  2.2480E-06
  8.3906E-06
  8.3906E-06
  8.3906E-06
  8.3906E-06
  8.3906E-06
  8.3906E-06
  8.3906E-06
  8.3906E-06
  8.3906E-06
  3.1317E-05
  3.1317E-05
  3.1317E-05
  3.1317E-05
  3.1317E-05
  3.1317E-05
  3.1317E-05
  3.1317E-05
  3.1317E-05
  1.1689E-04
  1.1689E-04
  1.1689E-04
  1.1689E-04
  1.1689E-04
  1.1689E-04
  1.1689E-04
  1.1689E-04
  1.1689E-04
  4.3628E-04
  4.3628E-04
  4.3628E-04
  4.3628E-04
  4.3628E-04
  4.3628E-04
  4.3628E-04
  4.3628E-04
  4.3628E-04
  1.6284E-03
  1.6284E-03
  1.6284E-03
  1.6284E-03
  1.6284E-03
  1.6284E-03
  1.6284E-03
  1.6284E-03
  1.6284E-03
  6.0779E-03
  6.0779E-03
  6.0779E-03
  6.0779E-03
  6.0779E-03
  6.0779E-03
  6.0779E-03
  6.0779E-03
  6.0779E-03
  2.2685E-02
  2.2685E-02
  2.2685E-02
  2.2685E-02
  2.2685E-02
  2.2685E-02
  2.2685E-02
  2.2685E-02
  2.2685E-02
  8.4671E-02
  8.4671E-02
  8.4671E-02
  8.4671E-02
  8.4671E-02
  8.4671E-02
  8.4671E-02
  8.4671E-02
  8.4671E-02
  1.3356E-01
  1.3356E-01
  1.3356E-01
  1.3356E-01
  1.3356E-01
  1.3356E-01
  1.3356E-01
  1.3356E-01
  1.3356E-01
   8.8000E-03
  1.3559E-12
  1.3559E-12
  1.3559E-12
  1.3559E-12
  1.3559E-12
  1.3559E-12
  1.3559E-12
  1.3559E-12
  1.3559E-12
  4.0684E-12
  4.0684E-12
  4.0684E-12
  4.0684E-12
  4.0684E-12
  4.0684E-12
  4.0684E-12
  4.0684E-12
  4.0684E-12
  1.6276E-11
  1.6276E-11
  1.6276E-11
  1.6276E-11
  1.6276E-11
  1.6276E-11
  1.6276E-11
  1.6276E-11
  1.6276E-11
  6.1040E-11
  6.1040E-11
  6.1040E-11
  6.1040E-11
  6.1040E-11
  6.1040E-11
  6.1040E-11
  6.1040E-11
  6.1040E-11
  2.2791E-10
  2.2791E-10
  2.2791E-10
  2.2791E-10
  2.2791E-10
  2.2791E-10
  2.2791E-10
  2.2791E-10
  2.2791E-10
  8.5067E-10
  8.5067E-10
  8.5067E-10
  8.5067E-10
  8.5067E-10
  8.5067E-10
  8.5067E-10
  8.5067E-10
  8.5067E-10
  3.1751E-09
  3.1751E-09
  3.1751E-09
  3.1751E-09
  3.1751E-09
  3.1751E-09
  3.1751E-09
  3.1751E-09
  3.1751E-09
  1.1851E-08
  1.1851E-08
  1.1851E-08
  1.1851E-08
  1.1851E-08
  1.1851E-08
  1.1851E-08
  1.1851E-08
  1.1851E-08
  4.4232E-08
  4.4232E-08
  4.4232E-08
  4.4232E-08
  4.4232E-08
  4.4232E-08
  4.4232E-08
  4.4232E-08
  4.4232E-08
  1.6509E-07
  1.6509E-07
  1.6509E-07
  1.6509E-07
  1.6509E-07
  1.6509E-07
  1.6509E-07
  1.6509E-07
  1.6509E-07
  6.1621E-07
  6.1621E-07
  6.1621E-07
  6.1621E-07
  6.1621E-07
  6.1621E-07
  6.1621E-07
  6.1621E-07
  6.1621E-07
  2.3000E-06
  2.3000E-06
  2.3000E-06
  2.3000E-06
  2.3000E-06
  2.3000E-06
  2.3000E-06
  2.3000E-06
  2.3000E-06
  8.5844E-06
  8.5844E-06
  8.5844E-06
  8.5844E-06
  8.5844E-06
  8.5844E-06
  8.5844E-06
  8.5844E-06
  8.5844E-06
  3.2041E-05
  3.2041E-05
  3.2041E-05
  3.2041E-05
  3.2041E-05
  3.2041E-05
  3.2041E-05
  3.2041E-05
  3.2041E-05
  1.1959E-04
  1.1959E-04
  1.1959E-04
  1.1959E-04
  1.1959E-04
  1.1959E-04
  1.1959E-04
  1.1959E-04
  1.1959E-04
  4.4637E-04
  4.4637E-04
  4.4637E-04
  4.4637E-04
  4.4637E-04
  4.4637E-04
  4.4637E-04
  4.4637E-04
  4.4637E-04
  1.6660E-03
  1.6660E-03
  1.6660E-03
  1.6660E-03
  1.6660E-03
  1.6660E-03
  1.6660E-03
  1.6660E-03
  1.6660E-03
  6.2184E-03
  6.2184E-03
  6.2184E-03
  6.2184E-03
  6.2184E-03
  6.2184E-03
  6.2184E-03
  6.2184E-03
  6.2184E-03
  2.3210E-02
  2.3210E-02
  2.3210E-02
  2.3210E-02
  2.3210E-02
  2.3210E-02
  2.3210E-02
  2.3210E-02
  2.3210E-02
  8.6629E-02
  8.6629E-02
  8.6629E-02
  8.6629E-02
  8.6629E-02
  8.6629E-02
  8.6629E-02
  8.6629E-02
  8.6629E-02
  1.3665E-01
  1.3665E-01
  1.3665E-01
  1.3665E-01
  1.3665E-01
  1.3665E-01
  1.3665E-01
  1.3665E-01
  1.3665E-01
   8.9000E-03
  1.3868E-12
  1.3868E-12
  1.3868E-12
  1.3868E-12
  1.3868E-12
  1.3868E-12
  1.3868E-12
  1.3868E-12
  1.3868E-12
  4.1612E-12
  4.1612E-12
  4.1612E-12
  4.1612E-12
  4.1612E-12
  4.1612E-12
  4.1612E-12
  4.1612E-12
  4.1612E-12
  1.6647E-11
  1.6647E-11
  1.6647E-11
  1.6647E-11
  1.6647E-11
  1.6647E-11
  1.6647E-11
  1.6647E-11
  1.6647E-11
  6.2433E-11
  6.2433E-11
  6.2433E-11
  6.2433E-11
  6.2433E-11
  6.2433E-11
  6.2433E-11
  6.2433E-11
  6.2433E-11
  2.3311E-10
  2.3311E-10
  2.3311E-10
  2.3311E-10
  2.3311E-10
  2.3311E-10
  2.3311E-10
  2.3311E-10
  2.3311E-10
  8.7008E-10
  8.7008E-10
  8.7008E-10
  8.7008E-10
  8.7008E-10
  8.7008E-10
  8.7008E-10
  8.7008E-10
  8.7008E-10
  3.2475E-09
  3.2475E-09
  3.2475E-09
  3.2475E-09
  3.2475E-09
  3.2475E-09
  3.2475E-09
  3.2475E-09
  3.2475E-09
  1.2121E-08
  1.2121E-08
  1.2121E-08
  1.2121E-08
  1.2121E-08
  1.2121E-08
  1.2121E-08
  1.2121E-08
  1.2121E-08
  4.5242E-08
  4.5242E-08
  4.5242E-08
  4.5242E-08
  4.5242E-08
  4.5242E-08
  4.5242E-08
  4.5242E-08
  4.5242E-08
  1.6886E-07
  1.6886E-07
  1.6886E-07
  1.6886E-07
  1.6886E-07
  1.6886E-07
  1.6886E-07
  1.6886E-07
  1.6886E-07
  6.3028E-07
  6.3028E-07
  6.3028E-07
  6.3028E-07
  6.3028E-07
  6.3028E-07
  6.3028E-07
  6.3028E-07
  6.3028E-07
  2.3525E-06
  2.3525E-06
  2.3525E-06
  2.3525E-06
  2.3525E-06
  2.3525E-06
  2.3525E-06
  2.3525E-06
  2.3525E-06
  8.7805E-06
  8.7805E-06
  8.7805E-06
  8.7805E-06
  8.7805E-06
  8.7805E-06
  8.7805E-06
  8.7805E-06
  8.7805E-06
  3.2773E-05
  3.2773E-05
  3.2773E-05
  3.2773E-05
  3.2773E-05
  3.2773E-05
  3.2773E-05
  3.2773E-05
  3.2773E-05
  1.2232E-04
  1.2232E-04
  1.2232E-04
  1.2232E-04
  1.2232E-04
  1.2232E-04
  1.2232E-04
  1.2232E-04
  1.2232E-04
  4.5656E-04
  4.5656E-04
  4.5656E-04
  4.5656E-04
  4.5656E-04
  4.5656E-04
  4.5656E-04
  4.5656E-04
  4.5656E-04
  1.7041E-03
  1.7041E-03
  1.7041E-03
  1.7041E-03
  1.7041E-03
  1.7041E-03
  1.7041E-03
  1.7041E-03
  1.7041E-03
  6.3605E-03
  6.3605E-03
  6.3605E-03
  6.3605E-03
  6.3605E-03
  6.3605E-03
  6.3605E-03
  6.3605E-03
  6.3605E-03
  2.3740E-02
  2.3740E-02
  2.3740E-02
  2.3740E-02
  2.3740E-02
  2.3740E-02
  2.3740E-02
  2.3740E-02
  2.3740E-02
  8.8609E-02
  8.8609E-02
  8.8609E-02
  8.8609E-02
  8.8609E-02
  8.8609E-02
  8.8609E-02
  8.8609E-02
  8.8609E-02
  1.3977E-01
  1.3977E-01
  1.3977E-01
  1.3977E-01
  1.3977E-01
  1.3977E-01
  1.3977E-01
  1.3977E-01
  1.3977E-01
   9.0000E-03
  1.4181E-12
  1.4181E-12
  1.4181E-12
  1.4181E-12
  1.4181E-12
  1.4181E-12
  1.4181E-12
  1.4181E-12
  1.4181E-12
  4.2551E-12
  4.2551E-12
  4.2551E-12
  4.2551E-12
  4.2551E-12
  4.2551E-12
  4.2551E-12
  4.2551E-12
  4.2551E-12
  1.7022E-11
  1.7022E-11
  1.7022E-11
  1.7022E-11
  1.7022E-11
  1.7022E-11
  1.7022E-11
  1.7022E-11
  1.7022E-11
  6.3841E-11
  6.3841E-11
  6.3841E-11
  6.3841E-11
  6.3841E-11
  6.3841E-11
  6.3841E-11
  6.3841E-11
  6.3841E-11
  2.3837E-10
  2.3837E-10
  2.3837E-10
  2.3837E-10
  2.3837E-10
  2.3837E-10
  2.3837E-10
  2.3837E-10
  2.3837E-10
  8.8971E-10
  8.8971E-10
  8.8971E-10
  8.8971E-10
  8.8971E-10
  8.8971E-10
  8.8971E-10
  8.8971E-10
  8.8971E-10
  3.3208E-09
  3.3208E-09
  3.3208E-09
  3.3208E-09
  3.3208E-09
  3.3208E-09
  3.3208E-09
  3.3208E-09
  3.3208E-09
  1.2395E-08
  1.2395E-08
  1.2395E-08
  1.2395E-08
  1.2395E-08
  1.2395E-08
  1.2395E-08
  1.2395E-08
  1.2395E-08
  4.6263E-08
  4.6263E-08
  4.6263E-08
  4.6263E-08
  4.6263E-08
  4.6263E-08
  4.6263E-08
  4.6263E-08
  4.6263E-08
  1.7268E-07
  1.7268E-07
  1.7268E-07
  1.7268E-07
  1.7268E-07
  1.7268E-07
  1.7268E-07
  1.7268E-07
  1.7268E-07
  6.4450E-07
  6.4450E-07
  6.4450E-07
  6.4450E-07
  6.4450E-07
  6.4450E-07
  6.4450E-07
  6.4450E-07
  6.4450E-07
  2.4056E-06
  2.4056E-06
  2.4056E-06
  2.4056E-06
  2.4056E-06
  2.4056E-06
  2.4056E-06
  2.4056E-06
  2.4056E-06
  8.9787E-06
  8.9787E-06
  8.9787E-06
  8.9787E-06
  8.9787E-06
  8.9787E-06
  8.9787E-06
  8.9787E-06
  8.9787E-06
  3.3513E-05
  3.3513E-05
  3.3513E-05
  3.3513E-05
  3.3513E-05
  3.3513E-05
  3.3513E-05
  3.3513E-05
  3.3513E-05
  1.2509E-04
  1.2509E-04
  1.2509E-04
  1.2509E-04
  1.2509E-04
  1.2509E-04
  1.2509E-04
  1.2509E-04
  1.2509E-04
  4.6688E-04
  4.6688E-04
  4.6688E-04
  4.6688E-04
  4.6688E-04
  4.6688E-04
  4.6688E-04
  4.6688E-04
  4.6688E-04
  1.7426E-03
  1.7426E-03
  1.7426E-03
  1.7426E-03
  1.7426E-03
  1.7426E-03
  1.7426E-03
  1.7426E-03
  1.7426E-03
  6.5042E-03
  6.5042E-03
  6.5042E-03
  6.5042E-03
  6.5042E-03
  6.5042E-03
  6.5042E-03
  6.5042E-03
  6.5042E-03
  2.4276E-02
  2.4276E-02
  2.4276E-02
  2.4276E-02
  2.4276E-02
  2.4276E-02
  2.4276E-02
  2.4276E-02
  2.4276E-02
  9.0611E-02
  9.0611E-02
  9.0611E-02
  9.0611E-02
  9.0611E-02
  9.0611E-02
  9.0611E-02
  9.0611E-02
  9.0611E-02
  1.4293E-01
  1.4293E-01
  1.4293E-01
  1.4293E-01
  1.4293E-01
  1.4293E-01
  1.4293E-01
  1.4293E-01
  1.4293E-01
   9.1000E-03
  1.4497E-12
  1.4497E-12
  1.4497E-12
  1.4497E-12
  1.4497E-12
  1.4497E-12
  1.4497E-12
  1.4497E-12
  1.4497E-12
  4.3500E-12
  4.3500E-12
  4.3500E-12
  4.3500E-12
  4.3500E-12
  4.3500E-12
  4.3500E-12
  4.3500E-12
  4.3500E-12
  1.7402E-11
  1.7402E-11
  1.7402E-11
  1.7402E-11
  1.7402E-11
  1.7402E-11
  1.7402E-11
  1.7402E-11
  1.7402E-11
  6.5265E-11
  6.5265E-11
  6.5265E-11
  6.5265E-11
  6.5265E-11
  6.5265E-11
  6.5265E-11
  6.5265E-11
  6.5265E-11
  2.4368E-10
  2.4368E-10
  2.4368E-10
  2.4368E-10
  2.4368E-10
  2.4368E-10
  2.4368E-10
  2.4368E-10
  2.4368E-10
  9.0956E-10
  9.0956E-10
  9.0956E-10
  9.0956E-10
  9.0956E-10
  9.0956E-10
  9.0956E-10
  9.0956E-10
  9.0956E-10
  3.3949E-09
  3.3949E-09
  3.3949E-09
  3.3949E-09
  3.3949E-09
  3.3949E-09
  3.3949E-09
  3.3949E-09
  3.3949E-09
  1.2671E-08
  1.2671E-08
  1.2671E-08
  1.2671E-08
  1.2671E-08
  1.2671E-08
  1.2671E-08
  1.2671E-08
  1.2671E-08
  4.7296E-08
  4.7296E-08
  4.7296E-08
  4.7296E-08
  4.7296E-08
  4.7296E-08
  4.7296E-08
  4.7296E-08
  4.7296E-08
  1.7653E-07
  1.7653E-07
  1.7653E-07
  1.7653E-07
  1.7653E-07
  1.7653E-07
  1.7653E-07
  1.7653E-07
  1.7653E-07
  6.5889E-07
  6.5889E-07
  6.5889E-07
  6.5889E-07
  6.5889E-07
  6.5889E-07
  6.5889E-07
  6.5889E-07
  6.5889E-07
  2.4593E-06
  2.4593E-06
  2.4593E-06
  2.4593E-06
  2.4593E-06
  2.4593E-06
  2.4593E-06
  2.4593E-06
  2.4593E-06
  9.1792E-06
  9.1792E-06
  9.1792E-06
  9.1792E-06
  9.1792E-06
  9.1792E-06
  9.1792E-06
  9.1792E-06
  9.1792E-06
  3.4261E-05
  3.4261E-05
  3.4261E-05
  3.4261E-05
  3.4261E-05
  3.4261E-05
  3.4261E-05
  3.4261E-05
  3.4261E-05
  1.2788E-04
  1.2788E-04
  1.2788E-04
  1.2788E-04
  1.2788E-04
  1.2788E-04
  1.2788E-04
  1.2788E-04
  1.2788E-04
  4.7730E-04
  4.7730E-04
  4.7730E-04
  4.7730E-04
  4.7730E-04
  4.7730E-04
  4.7730E-04
  4.7730E-04
  4.7730E-04
  1.7815E-03
  1.7815E-03
  1.7815E-03
  1.7815E-03
  1.7815E-03
  1.7815E-03
  1.7815E-03
  1.7815E-03
  1.7815E-03
  6.6494E-03
  6.6494E-03
  6.6494E-03
  6.6494E-03
  6.6494E-03
  6.6494E-03
  6.6494E-03
  6.6494E-03
  6.6494E-03
  2.4819E-02
  2.4819E-02
  2.4819E-02
  2.4819E-02
  2.4819E-02
  2.4819E-02
  2.4819E-02
  2.4819E-02
  2.4819E-02
  9.2636E-02
  9.2636E-02
  9.2636E-02
  9.2636E-02
  9.2636E-02
  9.2636E-02
  9.2636E-02
  9.2636E-02
  9.2636E-02
  1.4612E-01
  1.4612E-01
  1.4612E-01
  1.4612E-01
  1.4612E-01
  1.4612E-01
  1.4612E-01
  1.4612E-01
  1.4612E-01
   9.2000E-03
  1.4817E-12
  1.4817E-12
  1.4817E-12
  1.4817E-12
  1.4817E-12
  1.4817E-12
  1.4817E-12
  1.4817E-12
  1.4817E-12
  4.4459E-12
  4.4459E-12
  4.4459E-12
  4.4459E-12
  4.4459E-12
  4.4459E-12
  4.4459E-12
  4.4459E-12
  4.4459E-12
  1.7786E-11
  1.7786E-11
  1.7786E-11
  1.7786E-11
  1.7786E-11
  1.7786E-11
  1.7786E-11
  1.7786E-11
  1.7786E-11
  6.6704E-11
  6.6704E-11
  6.6704E-11
  6.6704E-11
  6.6704E-11
  6.6704E-11
  6.6704E-11
  6.6704E-11
  6.6704E-11
  2.4906E-10
  2.4906E-10
  2.4906E-10
  2.4906E-10
  2.4906E-10
  2.4906E-10
  2.4906E-10
  2.4906E-10
  2.4906E-10
  9.2963E-10
  9.2963E-10
  9.2963E-10
  9.2963E-10
  9.2963E-10
  9.2963E-10
  9.2963E-10
  9.2963E-10
  9.2963E-10
  3.4698E-09
  3.4698E-09
  3.4698E-09
  3.4698E-09
  3.4698E-09
  3.4698E-09
  3.4698E-09
  3.4698E-09
  3.4698E-09
  1.2951E-08
  1.2951E-08
  1.2951E-08
  1.2951E-08
  1.2951E-08
  1.2951E-08
  1.2951E-08
  1.2951E-08
  1.2951E-08
  4.8339E-08
  4.8339E-08
  4.8339E-08
  4.8339E-08
  4.8339E-08
  4.8339E-08
  4.8339E-08
  4.8339E-08
  4.8339E-08
  1.8043E-07
  1.8043E-07
  1.8043E-07
  1.8043E-07
  1.8043E-07
  1.8043E-07
  1.8043E-07
  1.8043E-07
  1.8043E-07
  6.7343E-07
  6.7343E-07
  6.7343E-07
  6.7343E-07
  6.7343E-07
  6.7343E-07
  6.7343E-07
  6.7343E-07
  6.7343E-07
  2.5136E-06
  2.5136E-06
  2.5136E-06
  2.5136E-06
  2.5136E-06
  2.5136E-06
  2.5136E-06
  2.5136E-06
  2.5136E-06
  9.3819E-06
  9.3819E-06
  9.3819E-06
  9.3819E-06
  9.3819E-06
  9.3819E-06
  9.3819E-06
  9.3819E-06
  9.3819E-06
  3.5018E-05
  3.5018E-05
  3.5018E-05
  3.5018E-05
  3.5018E-05
  3.5018E-05
  3.5018E-05
  3.5018E-05
  3.5018E-05
  1.3070E-04
  1.3070E-04
  1.3070E-04
  1.3070E-04
  1.3070E-04
  1.3070E-04
  1.3070E-04
  1.3070E-04
  1.3070E-04
  4.8784E-04
  4.8784E-04
  4.8784E-04
  4.8784E-04
  4.8784E-04
  4.8784E-04
  4.8784E-04
  4.8784E-04
  4.8784E-04
  1.8209E-03
  1.8209E-03
  1.8209E-03
  1.8209E-03
  1.8209E-03
  1.8209E-03
  1.8209E-03
  1.8209E-03
  1.8209E-03
  6.7963E-03
  6.7963E-03
  6.7963E-03
  6.7963E-03
  6.7963E-03
  6.7963E-03
  6.7963E-03
  6.7963E-03
  6.7963E-03
  2.5367E-02
  2.5367E-02
  2.5367E-02
  2.5367E-02
  2.5367E-02
  2.5367E-02
  2.5367E-02
  2.5367E-02
  2.5367E-02
  9.4682E-02
  9.4682E-02
  9.4682E-02
  9.4682E-02
  9.4682E-02
  9.4682E-02
  9.4682E-02
  9.4682E-02
  9.4682E-02
  1.4935E-01
  1.4935E-01
  1.4935E-01
  1.4935E-01
  1.4935E-01
  1.4935E-01
  1.4935E-01
  1.4935E-01
  1.4935E-01
   9.3000E-03
  1.5140E-12
  1.5140E-12
  1.5140E-12
  1.5140E-12
  1.5140E-12
  1.5140E-12
  1.5140E-12
  1.5140E-12
  1.5140E-12
  4.5428E-12
  4.5428E-12
  4.5428E-12
  4.5428E-12
  4.5428E-12
  4.5428E-12
  4.5428E-12
  4.5428E-12
  4.5428E-12
  1.8174E-11
  1.8174E-11
  1.8174E-11
  1.8174E-11
  1.8174E-11
  1.8174E-11
  1.8174E-11
  1.8174E-11
  1.8174E-11
  6.8160E-11
  6.8160E-11
  6.8160E-11
  6.8160E-11
  6.8160E-11
  6.8160E-11
  6.8160E-11
  6.8160E-11
  6.8160E-11
  2.5449E-10
  2.5449E-10
  2.5449E-10
  2.5449E-10
  2.5449E-10
  2.5449E-10
  2.5449E-10
  2.5449E-10
  2.5449E-10
  9.4991E-10
  9.4991E-10
  9.4991E-10
  9.4991E-10
  9.4991E-10
  9.4991E-10
  9.4991E-10
  9.4991E-10
  9.4991E-10
  3.5455E-09
  3.5455E-09
  3.5455E-09
  3.5455E-09
  3.5455E-09
  3.5455E-09
  3.5455E-09
  3.5455E-09
  3.5455E-09
  1.3234E-08
  1.3234E-08
  1.3234E-08
  1.3234E-08
  1.3234E-08
  1.3234E-08
  1.3234E-08
  1.3234E-08
  1.3234E-08
  4.9394E-08
  4.9394E-08
  4.9394E-08
  4.9394E-08
  4.9394E-08
  4.9394E-08
  4.9394E-08
  4.9394E-08
  4.9394E-08
  1.8436E-07
  1.8436E-07
  1.8436E-07
  1.8436E-07
  1.8436E-07
  1.8436E-07
  1.8436E-07
  1.8436E-07
  1.8436E-07
  6.8814E-07
  6.8814E-07
  6.8814E-07
  6.8814E-07
  6.8814E-07
  6.8814E-07
  6.8814E-07
  6.8814E-07
  6.8814E-07
  2.5685E-06
  2.5685E-06
  2.5685E-06
  2.5685E-06
  2.5685E-06
  2.5685E-06
  2.5685E-06
  2.5685E-06
  2.5685E-06
  9.5867E-06
  9.5867E-06
  9.5867E-06
  9.5867E-06
  9.5867E-06
  9.5867E-06
  9.5867E-06
  9.5867E-06
  9.5867E-06
  3.5782E-05
  3.5782E-05
  3.5782E-05
  3.5782E-05
  3.5782E-05
  3.5782E-05
  3.5782E-05
  3.5782E-05
  3.5782E-05
  1.3356E-04
  1.3356E-04
  1.3356E-04
  1.3356E-04
  1.3356E-04
  1.3356E-04
  1.3356E-04
  1.3356E-04
  1.3356E-04
  4.9850E-04
  4.9850E-04
  4.9850E-04
  4.9850E-04
  4.9850E-04
  4.9850E-04
  4.9850E-04
  4.9850E-04
  4.9850E-04
  1.8606E-03
  1.8606E-03
  1.8606E-03
  1.8606E-03
  1.8606E-03
  1.8606E-03
  1.8606E-03
  1.8606E-03
  1.8606E-03
  6.9448E-03
  6.9448E-03
  6.9448E-03
  6.9448E-03
  6.9448E-03
  6.9448E-03
  6.9448E-03
  6.9448E-03
  6.9448E-03
  2.5922E-02
  2.5922E-02
  2.5922E-02
  2.5922E-02
  2.5922E-02
  2.5922E-02
  2.5922E-02
  2.5922E-02
  2.5922E-02
  9.6752E-02
  9.6752E-02
  9.6752E-02
  9.6752E-02
  9.6752E-02
  9.6752E-02
  9.6752E-02
  9.6752E-02
  9.6752E-02
  1.5262E-01
  1.5262E-01
  1.5262E-01
  1.5262E-01
  1.5262E-01
  1.5262E-01
  1.5262E-01
  1.5262E-01
  1.5262E-01
   9.4000E-03
  1.5466E-12
  1.5466E-12
  1.5466E-12
  1.5466E-12
  1.5466E-12
  1.5466E-12
  1.5466E-12
  1.5466E-12
  1.5466E-12
  4.6408E-12
  4.6408E-12
  4.6408E-12
  4.6408E-12
  4.6408E-12
  4.6408E-12
  4.6408E-12
  4.6408E-12
  4.6408E-12
  1.8566E-11
  1.8566E-11
  1.8566E-11
  1.8566E-11
  1.8566E-11
  1.8566E-11
  1.8566E-11
  1.8566E-11
  1.8566E-11
  6.9630E-11
  6.9630E-11
  6.9630E-11
  6.9630E-11
  6.9630E-11
  6.9630E-11
  6.9630E-11
  6.9630E-11
  6.9630E-11
  2.5998E-10
  2.5998E-10
  2.5998E-10
  2.5998E-10
  2.5998E-10
  2.5998E-10
  2.5998E-10
  2.5998E-10
  2.5998E-10
  9.7041E-10
  9.7041E-10
  9.7041E-10
  9.7041E-10
  9.7041E-10
  9.7041E-10
  9.7041E-10
  9.7041E-10
  9.7041E-10
  3.6221E-09
  3.6221E-09
  3.6221E-09
  3.6221E-09
  3.6221E-09
  3.6221E-09
  3.6221E-09
  3.6221E-09
  3.6221E-09
  1.3519E-08
  1.3519E-08
  1.3519E-08
  1.3519E-08
  1.3519E-08
  1.3519E-08
  1.3519E-08
  1.3519E-08
  1.3519E-08
  5.0461E-08
  5.0461E-08
  5.0461E-08
  5.0461E-08
  5.0461E-08
  5.0461E-08
  5.0461E-08
  5.0461E-08
  5.0461E-08
  1.8835E-07
  1.8835E-07
  1.8835E-07
  1.8835E-07
  1.8835E-07
  1.8835E-07
  1.8835E-07
  1.8835E-07
  1.8835E-07
  7.0300E-07
  7.0300E-07
  7.0300E-07
  7.0300E-07
  7.0300E-07
  7.0300E-07
  7.0300E-07
  7.0300E-07
  7.0300E-07
  2.6239E-06
  2.6239E-06
  2.6239E-06
  2.6239E-06
  2.6239E-06
  2.6239E-06
  2.6239E-06
  2.6239E-06
  2.6239E-06
  9.7938E-06
  9.7938E-06
  9.7938E-06
  9.7938E-06
  9.7938E-06
  9.7938E-06
  9.7938E-06
  9.7938E-06
  9.7938E-06
  3.6555E-05
  3.6555E-05
  3.6555E-05
  3.6555E-05
  3.6555E-05
  3.6555E-05
  3.6555E-05
  3.6555E-05
  3.6555E-05
  1.3644E-04
  1.3644E-04
  1.3644E-04
  1.3644E-04
  1.3644E-04
  1.3644E-04
  1.3644E-04
  1.3644E-04
  1.3644E-04
  5.0927E-04
  5.0927E-04
  5.0927E-04
  5.0927E-04
  5.0927E-04
  5.0927E-04
  5.0927E-04
  5.0927E-04
  5.0927E-04
  1.9009E-03
  1.9009E-03
  1.9009E-03
  1.9009E-03
  1.9009E-03
  1.9009E-03
  1.9009E-03
  1.9009E-03
  1.9009E-03
  7.0949E-03
  7.0949E-03
  7.0949E-03
  7.0949E-03
  7.0949E-03
  7.0949E-03
  7.0949E-03
  7.0949E-03
  7.0949E-03
  2.6482E-02
  2.6482E-02
  2.6482E-02
  2.6482E-02
  2.6482E-02
  2.6482E-02
  2.6482E-02
  2.6482E-02
  2.6482E-02
  9.8843E-02
  9.8843E-02
  9.8843E-02
  9.8843E-02
  9.8843E-02
  9.8843E-02
  9.8843E-02
  9.8843E-02
  9.8843E-02
  1.5591E-01
  1.5591E-01
  1.5591E-01
  1.5591E-01
  1.5591E-01
  1.5591E-01
  1.5591E-01
  1.5591E-01
  1.5591E-01
   9.5000E-03
  1.5796E-12
  1.5796E-12
  1.5796E-12
  1.5796E-12
  1.5796E-12
  1.5796E-12
  1.5796E-12
  1.5796E-12
  1.5796E-12
  4.7399E-12
  4.7399E-12
  4.7399E-12
  4.7399E-12
  4.7399E-12
  4.7399E-12
  4.7399E-12
  4.7399E-12
  4.7399E-12
  1.8962E-11
  1.8962E-11
  1.8962E-11
  1.8962E-11
  1.8962E-11
  1.8962E-11
  1.8962E-11
  1.8962E-11
  1.8962E-11
  7.1117E-11
  7.1117E-11
  7.1117E-11
  7.1117E-11
  7.1117E-11
  7.1117E-11
  7.1117E-11
  7.1117E-11
  7.1117E-11
  2.6553E-10
  2.6553E-10
  2.6553E-10
  2.6553E-10
  2.6553E-10
  2.6553E-10
  2.6553E-10
  2.6553E-10
  2.6553E-10
  9.9113E-10
  9.9113E-10
  9.9113E-10
  9.9113E-10
  9.9113E-10
  9.9113E-10
  9.9113E-10
  9.9113E-10
  9.9113E-10
  3.6994E-09
  3.6994E-09
  3.6994E-09
  3.6994E-09
  3.6994E-09
  3.6994E-09
  3.6994E-09
  3.6994E-09
  3.6994E-09
  1.3808E-08
  1.3808E-08
  1.3808E-08
  1.3808E-08
  1.3808E-08
  1.3808E-08
  1.3808E-08
  1.3808E-08
  1.3808E-08
  5.1539E-08
  5.1539E-08
  5.1539E-08
  5.1539E-08
  5.1539E-08
  5.1539E-08
  5.1539E-08
  5.1539E-08
  5.1539E-08
  1.9237E-07
  1.9237E-07
  1.9237E-07
  1.9237E-07
  1.9237E-07
  1.9237E-07
  1.9237E-07
  1.9237E-07
  1.9237E-07
  7.1802E-07
  7.1802E-07
  7.1802E-07
  7.1802E-07
  7.1802E-07
  7.1802E-07
  7.1802E-07
  7.1802E-07
  7.1802E-07
  2.6800E-06
  2.6800E-06
  2.6800E-06
  2.6800E-06
  2.6800E-06
  2.6800E-06
  2.6800E-06
  2.6800E-06
  2.6800E-06
  1.0003E-05
  1.0003E-05
  1.0003E-05
  1.0003E-05
  1.0003E-05
  1.0003E-05
  1.0003E-05
  1.0003E-05
  1.0003E-05
  3.7337E-05
  3.7337E-05
  3.7337E-05
  3.7337E-05
  3.7337E-05
  3.7337E-05
  3.7337E-05
  3.7337E-05
  3.7337E-05
  1.3936E-04
  1.3936E-04
  1.3936E-04
  1.3936E-04
  1.3936E-04
  1.3936E-04
  1.3936E-04
  1.3936E-04
  1.3936E-04
  5.2016E-04
  5.2016E-04
  5.2016E-04
  5.2016E-04
  5.2016E-04
  5.2016E-04
  5.2016E-04
  5.2016E-04
  5.2016E-04
  1.9415E-03
  1.9415E-03
  1.9415E-03
  1.9415E-03
  1.9415E-03
  1.9415E-03
  1.9415E-03
  1.9415E-03
  1.9415E-03
  7.2467E-03
  7.2467E-03
  7.2467E-03
  7.2467E-03
  7.2467E-03
  7.2467E-03
  7.2467E-03
  7.2467E-03
  7.2467E-03
  2.7048E-02
  2.7048E-02
  2.7048E-02
  2.7048E-02
  2.7048E-02
  2.7048E-02
  2.7048E-02
  2.7048E-02
  2.7048E-02
  1.0096E-01
  1.0096E-01
  1.0096E-01
  1.0096E-01
  1.0096E-01
  1.0096E-01
  1.0096E-01
  1.0096E-01
  1.0096E-01
  1.5925E-01
  1.5925E-01
  1.5925E-01
  1.5925E-01
  1.5925E-01
  1.5925E-01
  1.5925E-01
  1.5925E-01
  1.5925E-01
   9.6000E-03
  1.6130E-12
  1.6130E-12
  1.6130E-12
  1.6130E-12
  1.6130E-12
  1.6130E-12
  1.6130E-12
  1.6130E-12
  1.6130E-12
  4.8399E-12
  4.8399E-12
  4.8399E-12
  4.8399E-12
  4.8399E-12
  4.8399E-12
  4.8399E-12
  4.8399E-12
  4.8399E-12
  1.9363E-11
  1.9363E-11
  1.9363E-11
  1.9363E-11
  1.9363E-11
  1.9363E-11
  1.9363E-11
  1.9363E-11
  1.9363E-11
  7.2618E-11
  7.2618E-11
  7.2618E-11
  7.2618E-11
  7.2618E-11
  7.2618E-11
  7.2618E-11
  7.2618E-11
  7.2618E-11
  2.7114E-10
  2.7114E-10
  2.7114E-10
  2.7114E-10
  2.7114E-10
  2.7114E-10
  2.7114E-10
  2.7114E-10
  2.7114E-10
  1.0121E-09
  1.0121E-09
  1.0121E-09
  1.0121E-09
  1.0121E-09
  1.0121E-09
  1.0121E-09
  1.0121E-09
  1.0121E-09
  3.7776E-09
  3.7776E-09
  3.7776E-09
  3.7776E-09
  3.7776E-09
  3.7776E-09
  3.7776E-09
  3.7776E-09
  3.7776E-09
  1.4100E-08
  1.4100E-08
  1.4100E-08
  1.4100E-08
  1.4100E-08
  1.4100E-08
  1.4100E-08
  1.4100E-08
  1.4100E-08
  5.2628E-08
  5.2628E-08
  5.2628E-08
  5.2628E-08
  5.2628E-08
  5.2628E-08
  5.2628E-08
  5.2628E-08
  5.2628E-08
  1.9643E-07
  1.9643E-07
  1.9643E-07
  1.9643E-07
  1.9643E-07
  1.9643E-07
  1.9643E-07
  1.9643E-07
  1.9643E-07
  7.3319E-07
  7.3319E-07
  7.3319E-07
  7.3319E-07
  7.3319E-07
  7.3319E-07
  7.3319E-07
  7.3319E-07
  7.3319E-07
  2.7367E-06
  2.7367E-06
  2.7367E-06
  2.7367E-06
  2.7367E-06
  2.7367E-06
  2.7367E-06
  2.7367E-06
  2.7367E-06
  1.0215E-05
  1.0215E-05
  1.0215E-05
  1.0215E-05
  1.0215E-05
  1.0215E-05
  1.0215E-05
  1.0215E-05
  1.0215E-05
  3.8126E-05
  3.8126E-05
  3.8126E-05
  3.8126E-05
  3.8126E-05
  3.8126E-05
  3.8126E-05
  3.8126E-05
  3.8126E-05
  1.4231E-04
  1.4231E-04
  1.4231E-04
  1.4231E-04
  1.4231E-04
  1.4231E-04
  1.4231E-04
  1.4231E-04
  1.4231E-04
  5.3116E-04
  5.3116E-04
  5.3116E-04
  5.3116E-04
  5.3116E-04
  5.3116E-04
  5.3116E-04
  5.3116E-04
  5.3116E-04
  1.9826E-03
  1.9826E-03
  1.9826E-03
  1.9826E-03
  1.9826E-03
  1.9826E-03
  1.9826E-03
  1.9826E-03
  1.9826E-03
  7.4000E-03
  7.4000E-03
  7.4000E-03
  7.4000E-03
  7.4000E-03
  7.4000E-03
  7.4000E-03
  7.4000E-03
  7.4000E-03
  2.7620E-02
  2.7620E-02
  2.7620E-02
  2.7620E-02
  2.7620E-02
  2.7620E-02
  2.7620E-02
  2.7620E-02
  2.7620E-02
  1.0309E-01
  1.0309E-01
  1.0309E-01
  1.0309E-01
  1.0309E-01
  1.0309E-01
  1.0309E-01
  1.0309E-01
  1.0309E-01
  1.6262E-01
  1.6262E-01
  1.6262E-01
  1.6262E-01
  1.6262E-01
  1.6262E-01
  1.6262E-01
  1.6262E-01
  1.6262E-01
   9.7000E-03
  1.6467E-12
  1.6467E-12
  1.6467E-12
  1.6467E-12
  1.6467E-12
  1.6467E-12
  1.6467E-12
  1.6467E-12
  1.6467E-12
  4.9411E-12
  4.9411E-12
  4.9411E-12
  4.9411E-12
  4.9411E-12
  4.9411E-12
  4.9411E-12
  4.9411E-12
  4.9411E-12
  1.9767E-11
  1.9767E-11
  1.9767E-11
  1.9767E-11
  1.9767E-11
  1.9767E-11
  1.9767E-11
  1.9767E-11
  1.9767E-11
  7.4136E-11
  7.4136E-11
  7.4136E-11
  7.4136E-11
  7.4136E-11
  7.4136E-11
  7.4136E-11
  7.4136E-11
  7.4136E-11
  2.7681E-10
  2.7681E-10
  2.7681E-10
  2.7681E-10
  2.7681E-10
  2.7681E-10
  2.7681E-10
  2.7681E-10
  2.7681E-10
  1.0332E-09
  1.0332E-09
  1.0332E-09
  1.0332E-09
  1.0332E-09
  1.0332E-09
  1.0332E-09
  1.0332E-09
  1.0332E-09
  3.8565E-09
  3.8565E-09
  3.8565E-09
  3.8565E-09
  3.8565E-09
  3.8565E-09
  3.8565E-09
  3.8565E-09
  3.8565E-09
  1.4395E-08
  1.4395E-08
  1.4395E-08
  1.4395E-08
  1.4395E-08
  1.4395E-08
  1.4395E-08
  1.4395E-08
  1.4395E-08
  5.3728E-08
  5.3728E-08
  5.3728E-08
  5.3728E-08
  5.3728E-08
  5.3728E-08
  5.3728E-08
  5.3728E-08
  5.3728E-08
  2.0054E-07
  2.0054E-07
  2.0054E-07
  2.0054E-07
  2.0054E-07
  2.0054E-07
  2.0054E-07
  2.0054E-07
  2.0054E-07
  7.4853E-07
  7.4853E-07
  7.4853E-07
  7.4853E-07
  7.4853E-07
  7.4853E-07
  7.4853E-07
  7.4853E-07
  7.4853E-07
  2.7939E-06
  2.7939E-06
  2.7939E-06
  2.7939E-06
  2.7939E-06
  2.7939E-06
  2.7939E-06
  2.7939E-06
  2.7939E-06
  1.0428E-05
  1.0428E-05
  1.0428E-05
  1.0428E-05
  1.0428E-05
  1.0428E-05
  1.0428E-05
  1.0428E-05
  1.0428E-05
  3.8924E-05
  3.8924E-05
  3.8924E-05
  3.8924E-05
  3.8924E-05
  3.8924E-05
  3.8924E-05
  3.8924E-05
  3.8924E-05
  1.4528E-04
  1.4528E-04
  1.4528E-04
  1.4528E-04
  1.4528E-04
  1.4528E-04
  1.4528E-04
  1.4528E-04
  1.4528E-04
  5.4228E-04
  5.4228E-04
  5.4228E-04
  5.4228E-04
  5.4228E-04
  5.4228E-04
  5.4228E-04
  5.4228E-04
  5.4228E-04
  2.0241E-03
  2.0241E-03
  2.0241E-03
  2.0241E-03
  2.0241E-03
  2.0241E-03
  2.0241E-03
  2.0241E-03
  2.0241E-03
  7.5549E-03
  7.5549E-03
  7.5549E-03
  7.5549E-03
  7.5549E-03
  7.5549E-03
  7.5549E-03
  7.5549E-03
  7.5549E-03
  2.8199E-02
  2.8199E-02
  2.8199E-02
  2.8199E-02
  2.8199E-02
  2.8199E-02
  2.8199E-02
  2.8199E-02
  2.8199E-02
  1.0525E-01
  1.0525E-01
  1.0525E-01
  1.0525E-01
  1.0525E-01
  1.0525E-01
  1.0525E-01
  1.0525E-01
  1.0525E-01
  1.6602E-01
  1.6602E-01
  1.6602E-01
  1.6602E-01
  1.6602E-01
  1.6602E-01
  1.6602E-01
  1.6602E-01
  1.6602E-01
   9.8000E-03
  1.6807E-12
  1.6807E-12
  1.6807E-12
  1.6807E-12
  1.6807E-12
  1.6807E-12
  1.6807E-12
  1.6807E-12
  1.6807E-12
  5.0432E-12
  5.0432E-12
  5.0432E-12
  5.0432E-12
  5.0432E-12
  5.0432E-12
  5.0432E-12
  5.0432E-12
  5.0432E-12
  2.0176E-11
  2.0176E-11
  2.0176E-11
  2.0176E-11
  2.0176E-11
  2.0176E-11
  2.0176E-11
  2.0176E-11
  2.0176E-11
  7.5669E-11
  7.5669E-11
  7.5669E-11
  7.5669E-11
  7.5669E-11
  7.5669E-11
  7.5669E-11
  7.5669E-11
  7.5669E-11
  2.8253E-10
  2.8253E-10
  2.8253E-10
  2.8253E-10
  2.8253E-10
  2.8253E-10
  2.8253E-10
  2.8253E-10
  2.8253E-10
  1.0546E-09
  1.0546E-09
  1.0546E-09
  1.0546E-09
  1.0546E-09
  1.0546E-09
  1.0546E-09
  1.0546E-09
  1.0546E-09
  3.9363E-09
  3.9363E-09
  3.9363E-09
  3.9363E-09
  3.9363E-09
  3.9363E-09
  3.9363E-09
  3.9363E-09
  3.9363E-09
  1.4692E-08
  1.4692E-08
  1.4692E-08
  1.4692E-08
  1.4692E-08
  1.4692E-08
  1.4692E-08
  1.4692E-08
  1.4692E-08
  5.4840E-08
  5.4840E-08
  5.4840E-08
  5.4840E-08
  5.4840E-08
  5.4840E-08
  5.4840E-08
  5.4840E-08
  5.4840E-08
  2.0469E-07
  2.0469E-07
  2.0469E-07
  2.0469E-07
  2.0469E-07
  2.0469E-07
  2.0469E-07
  2.0469E-07
  2.0469E-07
  7.6402E-07
  7.6402E-07
  7.6402E-07
  7.6402E-07
  7.6402E-07
  7.6402E-07
  7.6402E-07
  7.6402E-07
  7.6402E-07
  2.8517E-06
  2.8517E-06
  2.8517E-06
  2.8517E-06
  2.8517E-06
  2.8517E-06
  2.8517E-06
  2.8517E-06
  2.8517E-06
  1.0644E-05
  1.0644E-05
  1.0644E-05
  1.0644E-05
  1.0644E-05
  1.0644E-05
  1.0644E-05
  1.0644E-05
  1.0644E-05
  3.9730E-05
  3.9730E-05
  3.9730E-05
  3.9730E-05
  3.9730E-05
  3.9730E-05
  3.9730E-05
  3.9730E-05
  3.9730E-05
  1.4829E-04
  1.4829E-04
  1.4829E-04
  1.4829E-04
  1.4829E-04
  1.4829E-04
  1.4829E-04
  1.4829E-04
  1.4829E-04
  5.5351E-04
  5.5351E-04
  5.5351E-04
  5.5351E-04
  5.5351E-04
  5.5351E-04
  5.5351E-04
  5.5351E-04
  5.5351E-04
  2.0660E-03
  2.0660E-03
  2.0660E-03
  2.0660E-03
  2.0660E-03
  2.0660E-03
  2.0660E-03
  2.0660E-03
  2.0660E-03
  7.7114E-03
  7.7114E-03
  7.7114E-03
  7.7114E-03
  7.7114E-03
  7.7114E-03
  7.7114E-03
  7.7114E-03
  7.7114E-03
  2.8783E-02
  2.8783E-02
  2.8783E-02
  2.8783E-02
  2.8783E-02
  2.8783E-02
  2.8783E-02
  2.8783E-02
  2.8783E-02
  1.0743E-01
  1.0743E-01
  1.0743E-01
  1.0743E-01
  1.0743E-01
  1.0743E-01
  1.0743E-01
  1.0743E-01
  1.0743E-01
  1.6947E-01
  1.6947E-01
  1.6947E-01
  1.6947E-01
  1.6947E-01
  1.6947E-01
  1.6947E-01
  1.6947E-01
  1.6947E-01
   9.9000E-03
  1.7151E-12
  1.7151E-12
  1.7151E-12
  1.7151E-12
  1.7151E-12
  1.7151E-12
  1.7151E-12
  1.7151E-12
  1.7151E-12
  5.1464E-12
  5.1464E-12
  5.1464E-12
  5.1464E-12
  5.1464E-12
  5.1464E-12
  5.1464E-12
  5.1464E-12
  5.1464E-12
  2.0589E-11
  2.0589E-11
  2.0589E-11
  2.0589E-11
  2.0589E-11
  2.0589E-11
  2.0589E-11
  2.0589E-11
  2.0589E-11
  7.7218E-11
  7.7218E-11
  7.7218E-11
  7.7218E-11
  7.7218E-11
  7.7218E-11
  7.7218E-11
  7.7218E-11
  7.7218E-11
  2.8832E-10
  2.8832E-10
  2.8832E-10
  2.8832E-10
  2.8832E-10
  2.8832E-10
  2.8832E-10
  2.8832E-10
  2.8832E-10
  1.0762E-09
  1.0762E-09
  1.0762E-09
  1.0762E-09
  1.0762E-09
  1.0762E-09
  1.0762E-09
  1.0762E-09
  1.0762E-09
  4.0169E-09
  4.0169E-09
  4.0169E-09
  4.0169E-09
  4.0169E-09
  4.0169E-09
  4.0169E-09
  4.0169E-09
  4.0169E-09
  1.4993E-08
  1.4993E-08
  1.4993E-08
  1.4993E-08
  1.4993E-08
  1.4993E-08
  1.4993E-08
  1.4993E-08
  1.4993E-08
  5.5963E-08
  5.5963E-08
  5.5963E-08
  5.5963E-08
  5.5963E-08
  5.5963E-08
  5.5963E-08
  5.5963E-08
  5.5963E-08
  2.0889E-07
  2.0889E-07
  2.0889E-07
  2.0889E-07
  2.0889E-07
  2.0889E-07
  2.0889E-07
  2.0889E-07
  2.0889E-07
  7.7967E-07
  7.7967E-07
  7.7967E-07
  7.7967E-07
  7.7967E-07
  7.7967E-07
  7.7967E-07
  7.7967E-07
  7.7967E-07
  2.9102E-06
  2.9102E-06
  2.9102E-06
  2.9102E-06
  2.9102E-06
  2.9102E-06
  2.9102E-06
  2.9102E-06
  2.9102E-06
  1.0862E-05
  1.0862E-05
  1.0862E-05
  1.0862E-05
  1.0862E-05
  1.0862E-05
  1.0862E-05
  1.0862E-05
  1.0862E-05
  4.0544E-05
  4.0544E-05
  4.0544E-05
  4.0544E-05
  4.0544E-05
  4.0544E-05
  4.0544E-05
  4.0544E-05
  4.0544E-05
  1.5133E-04
  1.5133E-04
  1.5133E-04
  1.5133E-04
  1.5133E-04
  1.5133E-04
  1.5133E-04
  1.5133E-04
  1.5133E-04
  5.6486E-04
  5.6486E-04
  5.6486E-04
  5.6486E-04
  5.6486E-04
  5.6486E-04
  5.6486E-04
  5.6486E-04
  5.6486E-04
  2.1084E-03
  2.1084E-03
  2.1084E-03
  2.1084E-03
  2.1084E-03
  2.1084E-03
  2.1084E-03
  2.1084E-03
  2.1084E-03
  7.8695E-03
  7.8695E-03
  7.8695E-03
  7.8695E-03
  7.8695E-03
  7.8695E-03
  7.8695E-03
  7.8695E-03
  7.8695E-03
  2.9373E-02
  2.9373E-02
  2.9373E-02
  2.9373E-02
  2.9373E-02
  2.9373E-02
  2.9373E-02
  2.9373E-02
  2.9373E-02
  1.0964E-01
  1.0964E-01
  1.0964E-01
  1.0964E-01
  1.0964E-01
  1.0964E-01
  1.0964E-01
  1.0964E-01
  1.0964E-01
  1.7294E-01
  1.7294E-01
  1.7294E-01
  1.7294E-01
  1.7294E-01
  1.7294E-01
  1.7294E-01
  1.7294E-01
  1.7294E-01
   1.0000E-02
  1.7498E-12
  1.7498E-12
  1.7498E-12
  1.7498E-12
  1.7498E-12
  1.7498E-12
  1.7498E-12
  1.7498E-12
  1.7498E-12
  5.2506E-12
  5.2506E-12
  5.2506E-12
  5.2506E-12
  5.2506E-12
  5.2506E-12
  5.2506E-12
  5.2506E-12
  5.2506E-12
  2.1006E-11
  2.1006E-11
  2.1006E-11
  2.1006E-11
  2.1006E-11
  2.1006E-11
  2.1006E-11
  2.1006E-11
  2.1006E-11
  7.8782E-11
  7.8782E-11
  7.8782E-11
  7.8782E-11
  7.8782E-11
  7.8782E-11
  7.8782E-11
  7.8782E-11
  7.8782E-11
  2.9416E-10
  2.9416E-10
  2.9416E-10
  2.9416E-10
  2.9416E-10
  2.9416E-10
  2.9416E-10
  2.9416E-10
  2.9416E-10
  1.0980E-09
  1.0980E-09
  1.0980E-09
  1.0980E-09
  1.0980E-09
  1.0980E-09
  1.0980E-09
  1.0980E-09
  1.0980E-09
  4.0983E-09
  4.0983E-09
  4.0983E-09
  4.0983E-09
  4.0983E-09
  4.0983E-09
  4.0983E-09
  4.0983E-09
  4.0983E-09
  1.5297E-08
  1.5297E-08
  1.5297E-08
  1.5297E-08
  1.5297E-08
  1.5297E-08
  1.5297E-08
  1.5297E-08
  1.5297E-08
  5.7098E-08
  5.7098E-08
  5.7098E-08
  5.7098E-08
  5.7098E-08
  5.7098E-08
  5.7098E-08
  5.7098E-08
  5.7098E-08
  2.1312E-07
  2.1312E-07
  2.1312E-07
  2.1312E-07
  2.1312E-07
  2.1312E-07
  2.1312E-07
  2.1312E-07
  2.1312E-07
  7.9548E-07
  7.9548E-07
  7.9548E-07
  7.9548E-07
  7.9548E-07
  7.9548E-07
  7.9548E-07
  7.9548E-07
  7.9548E-07
  2.9692E-06
  2.9692E-06
  2.9692E-06
  2.9692E-06
  2.9692E-06
  2.9692E-06
  2.9692E-06
  2.9692E-06
  2.9692E-06
  1.1083E-05
  1.1083E-05
  1.1083E-05
  1.1083E-05
  1.1083E-05
  1.1083E-05
  1.1083E-05
  1.1083E-05
  1.1083E-05
  4.1367E-05
  4.1367E-05
  4.1367E-05
  4.1367E-05
  4.1367E-05
  4.1367E-05
  4.1367E-05
  4.1367E-05
  4.1367E-05
  1.5440E-04
  1.5440E-04
  1.5440E-04
  1.5440E-04
  1.5440E-04
  1.5440E-04
  1.5440E-04
  1.5440E-04
  1.5440E-04
  5.7632E-04
  5.7632E-04
  5.7632E-04
  5.7632E-04
  5.7632E-04
  5.7632E-04
  5.7632E-04
  5.7632E-04
  5.7632E-04
  2.1511E-03
  2.1511E-03
  2.1511E-03
  2.1511E-03
  2.1511E-03
  2.1511E-03
  2.1511E-03
  2.1511E-03
  2.1511E-03
  8.0292E-03
  8.0292E-03
  8.0292E-03
  8.0292E-03
  8.0292E-03
  8.0292E-03
  8.0292E-03
  8.0292E-03
  8.0292E-03
  2.9970E-02
  2.9970E-02
  2.9970E-02
  2.9970E-02
  2.9970E-02
  2.9970E-02
  2.9970E-02
  2.9970E-02
  2.9970E-02
  1.1186E-01
  1.1186E-01
  1.1186E-01
  1.1186E-01
  1.1186E-01
  1.1186E-01
  1.1186E-01
  1.1186E-01
  1.1186E-01
  1.7645E-01
  1.7645E-01
  1.7645E-01
  1.7645E-01
  1.7645E-01
  1.7645E-01
  1.7645E-01
  1.7645E-01
  1.7645E-01
   1.0100E-02
  1.7849E-12
  1.7849E-12
  1.7849E-12
  1.7849E-12
  1.7849E-12
  1.7849E-12
  1.7849E-12
  1.7849E-12
  1.7849E-12
  5.3559E-12
  5.3559E-12
  5.3559E-12
  5.3559E-12
  5.3559E-12
  5.3559E-12
  5.3559E-12
  5.3559E-12
  5.3559E-12
  2.1427E-11
  2.1427E-11
  2.1427E-11
  2.1427E-11
  2.1427E-11
  2.1427E-11
  2.1427E-11
  2.1427E-11
  2.1427E-11
  8.0362E-11
  8.0362E-11
  8.0362E-11
  8.0362E-11
  8.0362E-11
  8.0362E-11
  8.0362E-11
  8.0362E-11
  8.0362E-11
  3.0006E-10
  3.0006E-10
  3.0006E-10
  3.0006E-10
  3.0006E-10
  3.0006E-10
  3.0006E-10
  3.0006E-10
  3.0006E-10
  1.1200E-09
  1.1200E-09
  1.1200E-09
  1.1200E-09
  1.1200E-09
  1.1200E-09
  1.1200E-09
  1.1200E-09
  1.1200E-09
  4.1805E-09
  4.1805E-09
  4.1805E-09
  4.1805E-09
  4.1805E-09
  4.1805E-09
  4.1805E-09
  4.1805E-09
  4.1805E-09
  1.5604E-08
  1.5604E-08
  1.5604E-08
  1.5604E-08
  1.5604E-08
  1.5604E-08
  1.5604E-08
  1.5604E-08
  1.5604E-08
  5.8244E-08
  5.8244E-08
  5.8244E-08
  5.8244E-08
  5.8244E-08
  5.8244E-08
  5.8244E-08
  5.8244E-08
  5.8244E-08
  2.1740E-07
  2.1740E-07
  2.1740E-07
  2.1740E-07
  2.1740E-07
  2.1740E-07
  2.1740E-07
  2.1740E-07
  2.1740E-07
  8.1145E-07
  8.1145E-07
  8.1145E-07
  8.1145E-07
  8.1145E-07
  8.1145E-07
  8.1145E-07
  8.1145E-07
  8.1145E-07
  3.0288E-06
  3.0288E-06
  3.0288E-06
  3.0288E-06
  3.0288E-06
  3.0288E-06
  3.0288E-06
  3.0288E-06
  3.0288E-06
  1.1305E-05
  1.1305E-05
  1.1305E-05
  1.1305E-05
  1.1305E-05
  1.1305E-05
  1.1305E-05
  1.1305E-05
  1.1305E-05
  4.2197E-05
  4.2197E-05
  4.2197E-05
  4.2197E-05
  4.2197E-05
  4.2197E-05
  4.2197E-05
  4.2197E-05
  4.2197E-05
  1.5750E-04
  1.5750E-04
  1.5750E-04
  1.5750E-04
  1.5750E-04
  1.5750E-04
  1.5750E-04
  1.5750E-04
  1.5750E-04
  5.8789E-04
  5.8789E-04
  5.8789E-04
  5.8789E-04
  5.8789E-04
  5.8789E-04
  5.8789E-04
  5.8789E-04
  5.8789E-04
  2.1944E-03
  2.1944E-03
  2.1944E-03
  2.1944E-03
  2.1944E-03
  2.1944E-03
  2.1944E-03
  2.1944E-03
  2.1944E-03
  8.1906E-03
  8.1906E-03
  8.1906E-03
  8.1906E-03
  8.1906E-03
  8.1906E-03
  8.1906E-03
  8.1906E-03
  8.1906E-03
  3.0572E-02
  3.0572E-02
  3.0572E-02
  3.0572E-02
  3.0572E-02
  3.0572E-02
  3.0572E-02
  3.0572E-02
  3.0572E-02
  1.1411E-01
  1.1411E-01
  1.1411E-01
  1.1411E-01
  1.1411E-01
  1.1411E-01
  1.1411E-01
  1.1411E-01
  1.1411E-01
  1.8000E-01
  1.8000E-01
  1.8000E-01
  1.8000E-01
  1.8000E-01
  1.8000E-01
  1.8000E-01
  1.8000E-01
  1.8000E-01
   1.0200E-02
  1.8203E-12
  1.8203E-12
  1.8203E-12
  1.8203E-12
  1.8203E-12
  1.8203E-12
  1.8203E-12
  1.8203E-12
  1.8203E-12
  5.4622E-12
  5.4622E-12
  5.4622E-12
  5.4622E-12
  5.4622E-12
  5.4622E-12
  5.4622E-12
  5.4622E-12
  5.4622E-12
  2.1852E-11
  2.1852E-11
  2.1852E-11
  2.1852E-11
  2.1852E-11
  2.1852E-11
  2.1852E-11
  2.1852E-11
  2.1852E-11
  8.1957E-11
  8.1957E-11
  8.1957E-11
  8.1957E-11
  8.1957E-11
  8.1957E-11
  8.1957E-11
  8.1957E-11
  8.1957E-11
  3.0602E-10
  3.0602E-10
  3.0602E-10
  3.0602E-10
  3.0602E-10
  3.0602E-10
  3.0602E-10
  3.0602E-10
  3.0602E-10
  1.1423E-09
  1.1423E-09
  1.1423E-09
  1.1423E-09
  1.1423E-09
  1.1423E-09
  1.1423E-09
  1.1423E-09
  1.1423E-09
  4.2636E-09
  4.2636E-09
  4.2636E-09
  4.2636E-09
  4.2636E-09
  4.2636E-09
  4.2636E-09
  4.2636E-09
  4.2636E-09
  1.5914E-08
  1.5914E-08
  1.5914E-08
  1.5914E-08
  1.5914E-08
  1.5914E-08
  1.5914E-08
  1.5914E-08
  1.5914E-08
  5.9401E-08
  5.9401E-08
  5.9401E-08
  5.9401E-08
  5.9401E-08
  5.9401E-08
  5.9401E-08
  5.9401E-08
  5.9401E-08
  2.2172E-07
  2.2172E-07
  2.2172E-07
  2.2172E-07
  2.2172E-07
  2.2172E-07
  2.2172E-07
  2.2172E-07
  2.2172E-07
  8.2758E-07
  8.2758E-07
  8.2758E-07
  8.2758E-07
  8.2758E-07
  8.2758E-07
  8.2758E-07
  8.2758E-07
  8.2758E-07
  3.0890E-06
  3.0890E-06
  3.0890E-06
  3.0890E-06
  3.0890E-06
  3.0890E-06
  3.0890E-06
  3.0890E-06
  3.0890E-06
  1.1530E-05
  1.1530E-05
  1.1530E-05
  1.1530E-05
  1.1530E-05
  1.1530E-05
  1.1530E-05
  1.1530E-05
  1.1530E-05
  4.3036E-05
  4.3036E-05
  4.3036E-05
  4.3036E-05
  4.3036E-05
  4.3036E-05
  4.3036E-05
  4.3036E-05
  4.3036E-05
  1.6064E-04
  1.6064E-04
  1.6064E-04
  1.6064E-04
  1.6064E-04
  1.6064E-04
  1.6064E-04
  1.6064E-04
  1.6064E-04
  5.9959E-04
  5.9959E-04
  5.9959E-04
  5.9959E-04
  5.9959E-04
  5.9959E-04
  5.9959E-04
  5.9959E-04
  5.9959E-04
  2.2380E-03
  2.2380E-03
  2.2380E-03
  2.2380E-03
  2.2380E-03
  2.2380E-03
  2.2380E-03
  2.2380E-03
  2.2380E-03
  8.3535E-03
  8.3535E-03
  8.3535E-03
  8.3535E-03
  8.3535E-03
  8.3535E-03
  8.3535E-03
  8.3535E-03
  8.3535E-03
  3.1180E-02
  3.1180E-02
  3.1180E-02
  3.1180E-02
  3.1180E-02
  3.1180E-02
  3.1180E-02
  3.1180E-02
  3.1180E-02
  1.1638E-01
  1.1638E-01
  1.1638E-01
  1.1638E-01
  1.1638E-01
  1.1638E-01
  1.1638E-01
  1.1638E-01
  1.1638E-01
  1.8358E-01
  1.8358E-01
  1.8358E-01
  1.8358E-01
  1.8358E-01
  1.8358E-01
  1.8358E-01
  1.8358E-01
  1.8358E-01
   1.0300E-02
  1.8561E-12
  1.8561E-12
  1.8561E-12
  1.8561E-12
  1.8561E-12
  1.8561E-12
  1.8561E-12
  1.8561E-12
  1.8561E-12
  5.5695E-12
  5.5695E-12
  5.5695E-12
  5.5695E-12
  5.5695E-12
  5.5695E-12
  5.5695E-12
  5.5695E-12
  5.5695E-12
  2.2282E-11
  2.2282E-11
  2.2282E-11
  2.2282E-11
  2.2282E-11
  2.2282E-11
  2.2282E-11
  2.2282E-11
  2.2282E-11
  8.3568E-11
  8.3568E-11
  8.3568E-11
  8.3568E-11
  8.3568E-11
  8.3568E-11
  8.3568E-11
  8.3568E-11
  8.3568E-11
  3.1203E-10
  3.1203E-10
  3.1203E-10
  3.1203E-10
  3.1203E-10
  3.1203E-10
  3.1203E-10
  3.1203E-10
  3.1203E-10
  1.1647E-09
  1.1647E-09
  1.1647E-09
  1.1647E-09
  1.1647E-09
  1.1647E-09
  1.1647E-09
  1.1647E-09
  1.1647E-09
  4.3474E-09
  4.3474E-09
  4.3474E-09
  4.3474E-09
  4.3474E-09
  4.3474E-09
  4.3474E-09
  4.3474E-09
  4.3474E-09
  1.6227E-08
  1.6227E-08
  1.6227E-08
  1.6227E-08
  1.6227E-08
  1.6227E-08
  1.6227E-08
  1.6227E-08
  1.6227E-08
  6.0569E-08
  6.0569E-08
  6.0569E-08
  6.0569E-08
  6.0569E-08
  6.0569E-08
  6.0569E-08
  6.0569E-08
  6.0569E-08
  2.2608E-07
  2.2608E-07
  2.2608E-07
  2.2608E-07
  2.2608E-07
  2.2608E-07
  2.2608E-07
  2.2608E-07
  2.2608E-07
  8.4386E-07
  8.4386E-07
  8.4386E-07
  8.4386E-07
  8.4386E-07
  8.4386E-07
  8.4386E-07
  8.4386E-07
  8.4386E-07
  3.1498E-06
  3.1498E-06
  3.1498E-06
  3.1498E-06
  3.1498E-06
  3.1498E-06
  3.1498E-06
  3.1498E-06
  3.1498E-06
  1.1757E-05
  1.1757E-05
  1.1757E-05
  1.1757E-05
  1.1757E-05
  1.1757E-05
  1.1757E-05
  1.1757E-05
  1.1757E-05
  4.3883E-05
  4.3883E-05
  4.3883E-05
  4.3883E-05
  4.3883E-05
  4.3883E-05
  4.3883E-05
  4.3883E-05
  4.3883E-05
  1.6380E-04
  1.6380E-04
  1.6380E-04
  1.6380E-04
  1.6380E-04
  1.6380E-04
  1.6380E-04
  1.6380E-04
  1.6380E-04
  6.1139E-04
  6.1139E-04
  6.1139E-04
  6.1139E-04
  6.1139E-04
  6.1139E-04
  6.1139E-04
  6.1139E-04
  6.1139E-04
  2.2821E-03
  2.2821E-03
  2.2821E-03
  2.2821E-03
  2.2821E-03
  2.2821E-03
  2.2821E-03
  2.2821E-03
  2.2821E-03
  8.5180E-03
  8.5180E-03
  8.5180E-03
  8.5180E-03
  8.5180E-03
  8.5180E-03
  8.5180E-03
  8.5180E-03
  8.5180E-03
  3.1794E-02
  3.1794E-02
  3.1794E-02
  3.1794E-02
  3.1794E-02
  3.1794E-02
  3.1794E-02
  3.1794E-02
  3.1794E-02
  1.1867E-01
  1.1867E-01
  1.1867E-01
  1.1867E-01
  1.1867E-01
  1.1867E-01
  1.1867E-01
  1.1867E-01
  1.1867E-01
  1.8720E-01
  1.8720E-01
  1.8720E-01
  1.8720E-01
  1.8720E-01
  1.8720E-01
  1.8720E-01
  1.8720E-01
  1.8720E-01
   1.0400E-02
  1.8922E-12
  1.8922E-12
  1.8922E-12
  1.8922E-12
  1.8922E-12
  1.8922E-12
  1.8922E-12
  1.8922E-12
  1.8922E-12
  5.6779E-12
  5.6779E-12
  5.6779E-12
  5.6779E-12
  5.6779E-12
  5.6779E-12
  5.6779E-12
  5.6779E-12
  5.6779E-12
  2.2715E-11
  2.2715E-11
  2.2715E-11
  2.2715E-11
  2.2715E-11
  2.2715E-11
  2.2715E-11
  2.2715E-11
  2.2715E-11
  8.5195E-11
  8.5195E-11
  8.5195E-11
  8.5195E-11
  8.5195E-11
  8.5195E-11
  8.5195E-11
  8.5195E-11
  8.5195E-11
  3.1811E-10
  3.1811E-10
  3.1811E-10
  3.1811E-10
  3.1811E-10
  3.1811E-10
  3.1811E-10
  3.1811E-10
  3.1811E-10
  1.1874E-09
  1.1874E-09
  1.1874E-09
  1.1874E-09
  1.1874E-09
  1.1874E-09
  1.1874E-09
  1.1874E-09
  1.1874E-09
  4.4321E-09
  4.4321E-09
  4.4321E-09
  4.4321E-09
  4.4321E-09
  4.4321E-09
  4.4321E-09
  4.4321E-09
  4.4321E-09
  1.6543E-08
  1.6543E-08
  1.6543E-08
  1.6543E-08
  1.6543E-08
  1.6543E-08
  1.6543E-08
  1.6543E-08
  1.6543E-08
  6.1749E-08
  6.1749E-08
  6.1749E-08
  6.1749E-08
  6.1749E-08
  6.1749E-08
  6.1749E-08
  6.1749E-08
  6.1749E-08
  2.3048E-07
  2.3048E-07
  2.3048E-07
  2.3048E-07
  2.3048E-07
  2.3048E-07
  2.3048E-07
  2.3048E-07
  2.3048E-07
  8.6030E-07
  8.6030E-07
  8.6030E-07
  8.6030E-07
  8.6030E-07
  8.6030E-07
  8.6030E-07
  8.6030E-07
  8.6030E-07
  3.2112E-06
  3.2112E-06
  3.2112E-06
  3.2112E-06
  3.2112E-06
  3.2112E-06
  3.2112E-06
  3.2112E-06
  3.2112E-06
  1.1986E-05
  1.1986E-05
  1.1986E-05
  1.1986E-05
  1.1986E-05
  1.1986E-05
  1.1986E-05
  1.1986E-05
  1.1986E-05
  4.4739E-05
  4.4739E-05
  4.4739E-05
  4.4739E-05
  4.4739E-05
  4.4739E-05
  4.4739E-05
  4.4739E-05
  4.4739E-05
  1.6699E-04
  1.6699E-04
  1.6699E-04
  1.6699E-04
  1.6699E-04
  1.6699E-04
  1.6699E-04
  1.6699E-04
  1.6699E-04
  6.2331E-04
  6.2331E-04
  6.2331E-04
  6.2331E-04
  6.2331E-04
  6.2331E-04
  6.2331E-04
  6.2331E-04
  6.2331E-04
  2.3266E-03
  2.3266E-03
  2.3266E-03
  2.3266E-03
  2.3266E-03
  2.3266E-03
  2.3266E-03
  2.3266E-03
  2.3266E-03
  8.6842E-03
  8.6842E-03
  8.6842E-03
  8.6842E-03
  8.6842E-03
  8.6842E-03
  8.6842E-03
  8.6842E-03
  8.6842E-03
  3.2414E-02
  3.2414E-02
  3.2414E-02
  3.2414E-02
  3.2414E-02
  3.2414E-02
  3.2414E-02
  3.2414E-02
  3.2414E-02
  1.2099E-01
  1.2099E-01
  1.2099E-01
  1.2099E-01
  1.2099E-01
  1.2099E-01
  1.2099E-01
  1.2099E-01
  1.2099E-01
  1.9085E-01
  1.9085E-01
  1.9085E-01
  1.9085E-01
  1.9085E-01
  1.9085E-01
  1.9085E-01
  1.9085E-01
  1.9085E-01
   1.0500E-02
  1.9286E-12
  1.9286E-12
  1.9286E-12
  1.9286E-12
  1.9286E-12
  1.9286E-12
  1.9286E-12
  1.9286E-12
  1.9286E-12
  5.7873E-12
  5.7873E-12
  5.7873E-12
  5.7873E-12
  5.7873E-12
  5.7873E-12
  5.7873E-12
  5.7873E-12
  5.7873E-12
  2.3153E-11
  2.3153E-11
  2.3153E-11
  2.3153E-11
  2.3153E-11
  2.3153E-11
  2.3153E-11
  2.3153E-11
  2.3153E-11
  8.6837E-11
  8.6837E-11
  8.6837E-11
  8.6837E-11
  8.6837E-11
  8.6837E-11
  8.6837E-11
  8.6837E-11
  8.6837E-11
  3.2424E-10
  3.2424E-10
  3.2424E-10
  3.2424E-10
  3.2424E-10
  3.2424E-10
  3.2424E-10
  3.2424E-10
  3.2424E-10
  1.2103E-09
  1.2103E-09
  1.2103E-09
  1.2103E-09
  1.2103E-09
  1.2103E-09
  1.2103E-09
  1.2103E-09
  1.2103E-09
  4.5175E-09
  4.5175E-09
  4.5175E-09
  4.5175E-09
  4.5175E-09
  4.5175E-09
  4.5175E-09
  4.5175E-09
  4.5175E-09
  1.6862E-08
  1.6862E-08
  1.6862E-08
  1.6862E-08
  1.6862E-08
  1.6862E-08
  1.6862E-08
  1.6862E-08
  1.6862E-08
  6.2940E-08
  6.2940E-08
  6.2940E-08
  6.2940E-08
  6.2940E-08
  6.2940E-08
  6.2940E-08
  6.2940E-08
  6.2940E-08
  2.3493E-07
  2.3493E-07
  2.3493E-07
  2.3493E-07
  2.3493E-07
  2.3493E-07
  2.3493E-07
  2.3493E-07
  2.3493E-07
  8.7690E-07
  8.7690E-07
  8.7690E-07
  8.7690E-07
  8.7690E-07
  8.7690E-07
  8.7690E-07
  8.7690E-07
  8.7690E-07
  3.2731E-06
  3.2731E-06
  3.2731E-06
  3.2731E-06
  3.2731E-06
  3.2731E-06
  3.2731E-06
  3.2731E-06
  3.2731E-06
  1.2217E-05
  1.2217E-05
  1.2217E-05
  1.2217E-05
  1.2217E-05
  1.2217E-05
  1.2217E-05
  1.2217E-05
  1.2217E-05
  4.5602E-05
  4.5602E-05
  4.5602E-05
  4.5602E-05
  4.5602E-05
  4.5602E-05
  4.5602E-05
  4.5602E-05
  4.5602E-05
  1.7022E-04
  1.7022E-04
  1.7022E-04
  1.7022E-04
  1.7022E-04
  1.7022E-04
  1.7022E-04
  1.7022E-04
  1.7022E-04
  6.3535E-04
  6.3535E-04
  6.3535E-04
  6.3535E-04
  6.3535E-04
  6.3535E-04
  6.3535E-04
  6.3535E-04
  6.3535E-04
  2.3715E-03
  2.3715E-03
  2.3715E-03
  2.3715E-03
  2.3715E-03
  2.3715E-03
  2.3715E-03
  2.3715E-03
  2.3715E-03
  8.8519E-03
  8.8519E-03
  8.8519E-03
  8.8519E-03
  8.8519E-03
  8.8519E-03
  8.8519E-03
  8.8519E-03
  8.8519E-03
  3.3041E-02
  3.3041E-02
  3.3041E-02
  3.3041E-02
  3.3041E-02
  3.3041E-02
  3.3041E-02
  3.3041E-02
  3.3041E-02
  1.2333E-01
  1.2333E-01
  1.2333E-01
  1.2333E-01
  1.2333E-01
  1.2333E-01
  1.2333E-01
  1.2333E-01
  1.2333E-01
  1.9454E-01
  1.9454E-01
  1.9454E-01
  1.9454E-01
  1.9454E-01
  1.9454E-01
  1.9454E-01
  1.9454E-01
  1.9454E-01
   1.0600E-02
  1.9654E-12
  1.9654E-12
  1.9654E-12
  1.9654E-12
  1.9654E-12
  1.9654E-12
  1.9654E-12
  1.9654E-12
  1.9654E-12
  5.8977E-12
  5.8977E-12
  5.8977E-12
  5.8977E-12
  5.8977E-12
  5.8977E-12
  5.8977E-12
  5.8977E-12
  5.8977E-12
  2.3595E-11
  2.3595E-11
  2.3595E-11
  2.3595E-11
  2.3595E-11
  2.3595E-11
  2.3595E-11
  2.3595E-11
  2.3595E-11
  8.8495E-11
  8.8495E-11
  8.8495E-11
  8.8495E-11
  8.8495E-11
  8.8495E-11
  8.8495E-11
  8.8495E-11
  8.8495E-11
  3.3043E-10
  3.3043E-10
  3.3043E-10
  3.3043E-10
  3.3043E-10
  3.3043E-10
  3.3043E-10
  3.3043E-10
  3.3043E-10
  1.2334E-09
  1.2334E-09
  1.2334E-09
  1.2334E-09
  1.2334E-09
  1.2334E-09
  1.2334E-09
  1.2334E-09
  1.2334E-09
  4.6038E-09
  4.6038E-09
  4.6038E-09
  4.6038E-09
  4.6038E-09
  4.6038E-09
  4.6038E-09
  4.6038E-09
  4.6038E-09
  1.7184E-08
  1.7184E-08
  1.7184E-08
  1.7184E-08
  1.7184E-08
  1.7184E-08
  1.7184E-08
  1.7184E-08
  1.7184E-08
  6.4142E-08
  6.4142E-08
  6.4142E-08
  6.4142E-08
  6.4142E-08
  6.4142E-08
  6.4142E-08
  6.4142E-08
  6.4142E-08
  2.3942E-07
  2.3942E-07
  2.3942E-07
  2.3942E-07
  2.3942E-07
  2.3942E-07
  2.3942E-07
  2.3942E-07
  2.3942E-07
  8.9366E-07
  8.9366E-07
  8.9366E-07
  8.9366E-07
  8.9366E-07
  8.9366E-07
  8.9366E-07
  8.9366E-07
  8.9366E-07
  3.3357E-06
  3.3357E-06
  3.3357E-06
  3.3357E-06
  3.3357E-06
  3.3357E-06
  3.3357E-06
  3.3357E-06
  3.3357E-06
  1.2451E-05
  1.2451E-05
  1.2451E-05
  1.2451E-05
  1.2451E-05
  1.2451E-05
  1.2451E-05
  1.2451E-05
  1.2451E-05
  4.6474E-05
  4.6474E-05
  4.6474E-05
  4.6474E-05
  4.6474E-05
  4.6474E-05
  4.6474E-05
  4.6474E-05
  4.6474E-05
  1.7347E-04
  1.7347E-04
  1.7347E-04
  1.7347E-04
  1.7347E-04
  1.7347E-04
  1.7347E-04
  1.7347E-04
  1.7347E-04
  6.4750E-04
  6.4750E-04
  6.4750E-04
  6.4750E-04
  6.4750E-04
  6.4750E-04
  6.4750E-04
  6.4750E-04
  6.4750E-04
  2.4169E-03
  2.4169E-03
  2.4169E-03
  2.4169E-03
  2.4169E-03
  2.4169E-03
  2.4169E-03
  2.4169E-03
  2.4169E-03
  9.0212E-03
  9.0212E-03
  9.0212E-03
  9.0212E-03
  9.0212E-03
  9.0212E-03
  9.0212E-03
  9.0212E-03
  9.0212E-03
  3.3673E-02
  3.3673E-02
  3.3673E-02
  3.3673E-02
  3.3673E-02
  3.3673E-02
  3.3673E-02
  3.3673E-02
  3.3673E-02
  1.2569E-01
  1.2569E-01
  1.2569E-01
  1.2569E-01
  1.2569E-01
  1.2569E-01
  1.2569E-01
  1.2569E-01
  1.2569E-01
  1.9826E-01
  1.9826E-01
  1.9826E-01
  1.9826E-01
  1.9826E-01
  1.9826E-01
  1.9826E-01
  1.9826E-01
  1.9826E-01
   1.0700E-02
  2.0026E-12
  2.0026E-12
  2.0026E-12
  2.0026E-12
  2.0026E-12
  2.0026E-12
  2.0026E-12
  2.0026E-12
  2.0026E-12
  6.0092E-12
  6.0092E-12
  6.0092E-12
  6.0092E-12
  6.0092E-12
  6.0092E-12
  6.0092E-12
  6.0092E-12
  6.0092E-12
  2.4041E-11
  2.4041E-11
  2.4041E-11
  2.4041E-11
  2.4041E-11
  2.4041E-11
  2.4041E-11
  2.4041E-11
  2.4041E-11
  9.0168E-11
  9.0168E-11
  9.0168E-11
  9.0168E-11
  9.0168E-11
  9.0168E-11
  9.0168E-11
  9.0168E-11
  9.0168E-11
  3.3668E-10
  3.3668E-10
  3.3668E-10
  3.3668E-10
  3.3668E-10
  3.3668E-10
  3.3668E-10
  3.3668E-10
  3.3668E-10
  1.2567E-09
  1.2567E-09
  1.2567E-09
  1.2567E-09
  1.2567E-09
  1.2567E-09
  1.2567E-09
  1.2567E-09
  1.2567E-09
  4.6909E-09
  4.6909E-09
  4.6909E-09
  4.6909E-09
  4.6909E-09
  4.6909E-09
  4.6909E-09
  4.6909E-09
  4.6909E-09
  1.7509E-08
  1.7509E-08
  1.7509E-08
  1.7509E-08
  1.7509E-08
  1.7509E-08
  1.7509E-08
  1.7509E-08
  1.7509E-08
  6.5356E-08
  6.5356E-08
  6.5356E-08
  6.5356E-08
  6.5356E-08
  6.5356E-08
  6.5356E-08
  6.5356E-08
  6.5356E-08
  2.4395E-07
  2.4395E-07
  2.4395E-07
  2.4395E-07
  2.4395E-07
  2.4395E-07
  2.4395E-07
  2.4395E-07
  2.4395E-07
  9.1057E-07
  9.1057E-07
  9.1057E-07
  9.1057E-07
  9.1057E-07
  9.1057E-07
  9.1057E-07
  9.1057E-07
  9.1057E-07
  3.3988E-06
  3.3988E-06
  3.3988E-06
  3.3988E-06
  3.3988E-06
  3.3988E-06
  3.3988E-06
  3.3988E-06
  3.3988E-06
  1.2687E-05
  1.2687E-05
  1.2687E-05
  1.2687E-05
  1.2687E-05
  1.2687E-05
  1.2687E-05
  1.2687E-05
  1.2687E-05
  4.7354E-05
  4.7354E-05
  4.7354E-05
  4.7354E-05
  4.7354E-05
  4.7354E-05
  4.7354E-05
  4.7354E-05
  4.7354E-05
  1.7676E-04
  1.7676E-04
  1.7676E-04
  1.7676E-04
  1.7676E-04
  1.7676E-04
  1.7676E-04
  1.7676E-04
  1.7676E-04
  6.5976E-04
  6.5976E-04
  6.5976E-04
  6.5976E-04
  6.5976E-04
  6.5976E-04
  6.5976E-04
  6.5976E-04
  6.5976E-04
  2.4627E-03
  2.4627E-03
  2.4627E-03
  2.4627E-03
  2.4627E-03
  2.4627E-03
  2.4627E-03
  2.4627E-03
  2.4627E-03
  9.1922E-03
  9.1922E-03
  9.1922E-03
  9.1922E-03
  9.1922E-03
  9.1922E-03
  9.1922E-03
  9.1922E-03
  9.1922E-03
  3.4311E-02
  3.4311E-02
  3.4311E-02
  3.4311E-02
  3.4311E-02
  3.4311E-02
  3.4311E-02
  3.4311E-02
  3.4311E-02
  1.2807E-01
  1.2807E-01
  1.2807E-01
  1.2807E-01
  1.2807E-01
  1.2807E-01
  1.2807E-01
  1.2807E-01
  1.2807E-01
  2.0202E-01
  2.0202E-01
  2.0202E-01
  2.0202E-01
  2.0202E-01
  2.0202E-01
  2.0202E-01
  2.0202E-01
  2.0202E-01
   1.0800E-02
  2.0400E-12
  2.0400E-12
  2.0400E-12
  2.0400E-12
  2.0400E-12
  2.0400E-12
  2.0400E-12
  2.0400E-12
  2.0400E-12
  6.1217E-12
  6.1217E-12
  6.1217E-12
  6.1217E-12
  6.1217E-12
  6.1217E-12
  6.1217E-12
  6.1217E-12
  6.1217E-12
  2.4491E-11
  2.4491E-11
  2.4491E-11
  2.4491E-11
  2.4491E-11
  2.4491E-11
  2.4491E-11
  2.4491E-11
  2.4491E-11
  9.1857E-11
  9.1857E-11
  9.1857E-11
  9.1857E-11
  9.1857E-11
  9.1857E-11
  9.1857E-11
  9.1857E-11
  9.1857E-11
  3.4299E-10
  3.4299E-10
  3.4299E-10
  3.4299E-10
  3.4299E-10
  3.4299E-10
  3.4299E-10
  3.4299E-10
  3.4299E-10
  1.2803E-09
  1.2803E-09
  1.2803E-09
  1.2803E-09
  1.2803E-09
  1.2803E-09
  1.2803E-09
  1.2803E-09
  1.2803E-09
  4.7788E-09
  4.7788E-09
  4.7788E-09
  4.7788E-09
  4.7788E-09
  4.7788E-09
  4.7788E-09
  4.7788E-09
  4.7788E-09
  1.7838E-08
  1.7838E-08
  1.7838E-08
  1.7838E-08
  1.7838E-08
  1.7838E-08
  1.7838E-08
  1.7838E-08
  1.7838E-08
  6.6581E-08
  6.6581E-08
  6.6581E-08
  6.6581E-08
  6.6581E-08
  6.6581E-08
  6.6581E-08
  6.6581E-08
  6.6581E-08
  2.4852E-07
  2.4852E-07
  2.4852E-07
  2.4852E-07
  2.4852E-07
  2.4852E-07
  2.4852E-07
  2.4852E-07
  2.4852E-07
  9.2765E-07
  9.2765E-07
  9.2765E-07
  9.2765E-07
  9.2765E-07
  9.2765E-07
  9.2765E-07
  9.2765E-07
  9.2765E-07
  3.4626E-06
  3.4626E-06
  3.4626E-06
  3.4626E-06
  3.4626E-06
  3.4626E-06
  3.4626E-06
  3.4626E-06
  3.4626E-06
  1.2925E-05
  1.2925E-05
  1.2925E-05
  1.2925E-05
  1.2925E-05
  1.2925E-05
  1.2925E-05
  1.2925E-05
  1.2925E-05
  4.8243E-05
  4.8243E-05
  4.8243E-05
  4.8243E-05
  4.8243E-05
  4.8243E-05
  4.8243E-05
  4.8243E-05
  4.8243E-05
  1.8007E-04
  1.8007E-04
  1.8007E-04
  1.8007E-04
  1.8007E-04
  1.8007E-04
  1.8007E-04
  1.8007E-04
  1.8007E-04
  6.7214E-04
  6.7214E-04
  6.7214E-04
  6.7214E-04
  6.7214E-04
  6.7214E-04
  6.7214E-04
  6.7214E-04
  6.7214E-04
  2.5089E-03
  2.5089E-03
  2.5089E-03
  2.5089E-03
  2.5089E-03
  2.5089E-03
  2.5089E-03
  2.5089E-03
  2.5089E-03
  9.3647E-03
  9.3647E-03
  9.3647E-03
  9.3647E-03
  9.3647E-03
  9.3647E-03
  9.3647E-03
  9.3647E-03
  9.3647E-03
  3.4955E-02
  3.4955E-02
  3.4955E-02
  3.4955E-02
  3.4955E-02
  3.4955E-02
  3.4955E-02
  3.4955E-02
  3.4955E-02
  1.3047E-01
  1.3047E-01
  1.3047E-01
  1.3047E-01
  1.3047E-01
  1.3047E-01
  1.3047E-01
  1.3047E-01
  1.3047E-01
  2.0581E-01
  2.0581E-01
  2.0581E-01
  2.0581E-01
  2.0581E-01
  2.0581E-01
  2.0581E-01
  2.0581E-01
  2.0581E-01
   1.0900E-02
  2.0779E-12
  2.0779E-12
  2.0779E-12
  2.0779E-12
  2.0779E-12
  2.0779E-12
  2.0779E-12
  2.0779E-12
  2.0779E-12
  6.2353E-12
  6.2353E-12
  6.2353E-12
  6.2353E-12
  6.2353E-12
  6.2353E-12
  6.2353E-12
  6.2353E-12
  6.2353E-12
  2.4946E-11
  2.4946E-11
  2.4946E-11
  2.4946E-11
  2.4946E-11
  2.4946E-11
  2.4946E-11
  2.4946E-11
  2.4946E-11
  9.3561E-11
  9.3561E-11
  9.3561E-11
  9.3561E-11
  9.3561E-11
  9.3561E-11
  9.3561E-11
  9.3561E-11
  9.3561E-11
  3.4935E-10
  3.4935E-10
  3.4935E-10
  3.4935E-10
  3.4935E-10
  3.4935E-10
  3.4935E-10
  3.4935E-10
  3.4935E-10
  1.3040E-09
  1.3040E-09
  1.3040E-09
  1.3040E-09
  1.3040E-09
  1.3040E-09
  1.3040E-09
  1.3040E-09
  1.3040E-09
  4.8675E-09
  4.8675E-09
  4.8675E-09
  4.8675E-09
  4.8675E-09
  4.8675E-09
  4.8675E-09
  4.8675E-09
  4.8675E-09
  1.8169E-08
  1.8169E-08
  1.8169E-08
  1.8169E-08
  1.8169E-08
  1.8169E-08
  1.8169E-08
  1.8169E-08
  1.8169E-08
  6.7817E-08
  6.7817E-08
  6.7817E-08
  6.7817E-08
  6.7817E-08
  6.7817E-08
  6.7817E-08
  6.7817E-08
  6.7817E-08
  2.5314E-07
  2.5314E-07
  2.5314E-07
  2.5314E-07
  2.5314E-07
  2.5314E-07
  2.5314E-07
  2.5314E-07
  2.5314E-07
  9.4488E-07
  9.4488E-07
  9.4488E-07
  9.4488E-07
  9.4488E-07
  9.4488E-07
  9.4488E-07
  9.4488E-07
  9.4488E-07
  3.5269E-06
  3.5269E-06
  3.5269E-06
  3.5269E-06
  3.5269E-06
  3.5269E-06
  3.5269E-06
  3.5269E-06
  3.5269E-06
  1.3165E-05
  1.3165E-05
  1.3165E-05
  1.3165E-05
  1.3165E-05
  1.3165E-05
  1.3165E-05
  1.3165E-05
  1.3165E-05
  4.9139E-05
  4.9139E-05
  4.9139E-05
  4.9139E-05
  4.9139E-05
  4.9139E-05
  4.9139E-05
  4.9139E-05
  4.9139E-05
  1.8342E-04
  1.8342E-04
  1.8342E-04
  1.8342E-04
  1.8342E-04
  1.8342E-04
  1.8342E-04
  1.8342E-04
  1.8342E-04
  6.8464E-04
  6.8464E-04
  6.8464E-04
  6.8464E-04
  6.8464E-04
  6.8464E-04
  6.8464E-04
  6.8464E-04
  6.8464E-04
  2.5555E-03
  2.5555E-03
  2.5555E-03
  2.5555E-03
  2.5555E-03
  2.5555E-03
  2.5555E-03
  2.5555E-03
  2.5555E-03
  9.5388E-03
  9.5388E-03
  9.5388E-03
  9.5388E-03
  9.5388E-03
  9.5388E-03
  9.5388E-03
  9.5388E-03
  9.5388E-03
  3.5605E-02
  3.5605E-02
  3.5605E-02
  3.5605E-02
  3.5605E-02
  3.5605E-02
  3.5605E-02
  3.5605E-02
  3.5605E-02
  1.3290E-01
  1.3290E-01
  1.3290E-01
  1.3290E-01
  1.3290E-01
  1.3290E-01
  1.3290E-01
  1.3290E-01
  1.3290E-01
  2.0964E-01
  2.0964E-01
  2.0964E-01
  2.0964E-01
  2.0964E-01
  2.0964E-01
  2.0964E-01
  2.0964E-01
  2.0964E-01
   1.1000E-02
  2.1160E-12
  2.1160E-12
  2.1160E-12
  2.1160E-12
  2.1160E-12
  2.1160E-12
  2.1160E-12
  2.1160E-12
  2.1160E-12
  6.3498E-12
  6.3498E-12
  6.3498E-12
  6.3498E-12
  6.3498E-12
  6.3498E-12
  6.3498E-12
  6.3498E-12
  6.3498E-12
  2.5404E-11
  2.5404E-11
  2.5404E-11
  2.5404E-11
  2.5404E-11
  2.5404E-11
  2.5404E-11
  2.5404E-11
  2.5404E-11
  9.5281E-11
  9.5281E-11
  9.5281E-11
  9.5281E-11
  9.5281E-11
  9.5281E-11
  9.5281E-11
  9.5281E-11
  9.5281E-11
  3.5577E-10
  3.5577E-10
  3.5577E-10
  3.5577E-10
  3.5577E-10
  3.5577E-10
  3.5577E-10
  3.5577E-10
  3.5577E-10
  1.3280E-09
  1.3280E-09
  1.3280E-09
  1.3280E-09
  1.3280E-09
  1.3280E-09
  1.3280E-09
  1.3280E-09
  1.3280E-09
  4.9570E-09
  4.9570E-09
  4.9570E-09
  4.9570E-09
  4.9570E-09
  4.9570E-09
  4.9570E-09
  4.9570E-09
  4.9570E-09
  1.8503E-08
  1.8503E-08
  1.8503E-08
  1.8503E-08
  1.8503E-08
  1.8503E-08
  1.8503E-08
  1.8503E-08
  1.8503E-08
  6.9065E-08
  6.9065E-08
  6.9065E-08
  6.9065E-08
  6.9065E-08
  6.9065E-08
  6.9065E-08
  6.9065E-08
  6.9065E-08
  2.5780E-07
  2.5780E-07
  2.5780E-07
  2.5780E-07
  2.5780E-07
  2.5780E-07
  2.5780E-07
  2.5780E-07
  2.5780E-07
  9.6227E-07
  9.6227E-07
  9.6227E-07
  9.6227E-07
  9.6227E-07
  9.6227E-07
  9.6227E-07
  9.6227E-07
  9.6227E-07
  3.5918E-06
  3.5918E-06
  3.5918E-06
  3.5918E-06
  3.5918E-06
  3.5918E-06
  3.5918E-06
  3.5918E-06
  3.5918E-06
  1.3407E-05
  1.3407E-05
  1.3407E-05
  1.3407E-05
  1.3407E-05
  1.3407E-05
  1.3407E-05
  1.3407E-05
  1.3407E-05
  5.0044E-05
  5.0044E-05
  5.0044E-05
  5.0044E-05
  5.0044E-05
  5.0044E-05
  5.0044E-05
  5.0044E-05
  5.0044E-05
  1.8680E-04
  1.8680E-04
  1.8680E-04
  1.8680E-04
  1.8680E-04
  1.8680E-04
  1.8680E-04
  1.8680E-04
  1.8680E-04
  6.9725E-04
  6.9725E-04
  6.9725E-04
  6.9725E-04
  6.9725E-04
  6.9725E-04
  6.9725E-04
  6.9725E-04
  6.9725E-04
  2.6026E-03
  2.6026E-03
  2.6026E-03
  2.6026E-03
  2.6026E-03
  2.6026E-03
  2.6026E-03
  2.6026E-03
  2.6026E-03
  9.7146E-03
  9.7146E-03
  9.7146E-03
  9.7146E-03
  9.7146E-03
  9.7146E-03
  9.7146E-03
  9.7146E-03
  9.7146E-03
  3.6261E-02
  3.6261E-02
  3.6261E-02
  3.6261E-02
  3.6261E-02
  3.6261E-02
  3.6261E-02
  3.6261E-02
  3.6261E-02
  1.3535E-01
  1.3535E-01
  1.3535E-01
  1.3535E-01
  1.3535E-01
  1.3535E-01
  1.3535E-01
  1.3535E-01
  1.3535E-01
  2.1350E-01
  2.1350E-01
  2.1350E-01
  2.1350E-01
  2.1350E-01
  2.1350E-01
  2.1350E-01
  2.1350E-01
  2.1350E-01
   1.1100E-02
  2.1546E-12
  2.1546E-12
  2.1546E-12
  2.1546E-12
  2.1546E-12
  2.1546E-12
  2.1546E-12
  2.1546E-12
  2.1546E-12
  6.4654E-12
  6.4654E-12
  6.4654E-12
  6.4654E-12
  6.4654E-12
  6.4654E-12
  6.4654E-12
  6.4654E-12
  6.4654E-12
  2.5867E-11
  2.5867E-11
  2.5867E-11
  2.5867E-11
  2.5867E-11
  2.5867E-11
  2.5867E-11
  2.5867E-11
  2.5867E-11
  9.7016E-11
  9.7016E-11
  9.7016E-11
  9.7016E-11
  9.7016E-11
  9.7016E-11
  9.7016E-11
  9.7016E-11
  9.7016E-11
  3.6225E-10
  3.6225E-10
  3.6225E-10
  3.6225E-10
  3.6225E-10
  3.6225E-10
  3.6225E-10
  3.6225E-10
  3.6225E-10
  1.3522E-09
  1.3522E-09
  1.3522E-09
  1.3522E-09
  1.3522E-09
  1.3522E-09
  1.3522E-09
  1.3522E-09
  1.3522E-09
  5.0474E-09
  5.0474E-09
  5.0474E-09
  5.0474E-09
  5.0474E-09
  5.0474E-09
  5.0474E-09
  5.0474E-09
  5.0474E-09
  1.8840E-08
  1.8840E-08
  1.8840E-08
  1.8840E-08
  1.8840E-08
  1.8840E-08
  1.8840E-08
  1.8840E-08
  1.8840E-08
  7.0324E-08
  7.0324E-08
  7.0324E-08
  7.0324E-08
  7.0324E-08
  7.0324E-08
  7.0324E-08
  7.0324E-08
  7.0324E-08
  2.6250E-07
  2.6250E-07
  2.6250E-07
  2.6250E-07
  2.6250E-07
  2.6250E-07
  2.6250E-07
  2.6250E-07
  2.6250E-07
  9.7981E-07
  9.7981E-07
  9.7981E-07
  9.7981E-07
  9.7981E-07
  9.7981E-07
  9.7981E-07
  9.7981E-07
  9.7981E-07
  3.6573E-06
  3.6573E-06
  3.6573E-06
  3.6573E-06
  3.6573E-06
  3.6573E-06
  3.6573E-06
  3.6573E-06
  3.6573E-06
  1.3652E-05
  1.3652E-05
  1.3652E-05
  1.3652E-05
  1.3652E-05
  1.3652E-05
  1.3652E-05
  1.3652E-05
  1.3652E-05
  5.0957E-05
  5.0957E-05
  5.0957E-05
  5.0957E-05
  5.0957E-05
  5.0957E-05
  5.0957E-05
  5.0957E-05
  5.0957E-05
  1.9021E-04
  1.9021E-04
  1.9021E-04
  1.9021E-04
  1.9021E-04
  1.9021E-04
  1.9021E-04
  1.9021E-04
  1.9021E-04
  7.0997E-04
  7.0997E-04
  7.0997E-04
  7.0997E-04
  7.0997E-04
  7.0997E-04
  7.0997E-04
  7.0997E-04
  7.0997E-04
  2.6501E-03
  2.6501E-03
  2.6501E-03
  2.6501E-03
  2.6501E-03
  2.6501E-03
  2.6501E-03
  2.6501E-03
  2.6501E-03
  9.8919E-03
  9.8919E-03
  9.8919E-03
  9.8919E-03
  9.8919E-03
  9.8919E-03
  9.8919E-03
  9.8919E-03
  9.8919E-03
  3.6923E-02
  3.6923E-02
  3.6923E-02
  3.6923E-02
  3.6923E-02
  3.6923E-02
  3.6923E-02
  3.6923E-02
  3.6923E-02
  1.3782E-01
  1.3782E-01
  1.3782E-01
  1.3782E-01
  1.3782E-01
  1.3782E-01
  1.3782E-01
  1.3782E-01
  1.3782E-01
  2.1740E-01
  2.1740E-01
  2.1740E-01
  2.1740E-01
  2.1740E-01
  2.1740E-01
  2.1740E-01
  2.1740E-01
  2.1740E-01
   1.1200E-02
  2.1934E-12
  2.1934E-12
  2.1934E-12
  2.1934E-12
  2.1934E-12
  2.1934E-12
  2.1934E-12
  2.1934E-12
  2.1934E-12
  6.5821E-12
  6.5821E-12
  6.5821E-12
  6.5821E-12
  6.5821E-12
  6.5821E-12
  6.5821E-12
  6.5821E-12
  6.5821E-12
  2.6333E-11
  2.6333E-11
  2.6333E-11
  2.6333E-11
  2.6333E-11
  2.6333E-11
  2.6333E-11
  2.6333E-11
  2.6333E-11
  9.8767E-11
  9.8767E-11
  9.8767E-11
  9.8767E-11
  9.8767E-11
  9.8767E-11
  9.8767E-11
  9.8767E-11
  9.8767E-11
  3.6879E-10
  3.6879E-10
  3.6879E-10
  3.6879E-10
  3.6879E-10
  3.6879E-10
  3.6879E-10
  3.6879E-10
  3.6879E-10
  1.3766E-09
  1.3766E-09
  1.3766E-09
  1.3766E-09
  1.3766E-09
  1.3766E-09
  1.3766E-09
  1.3766E-09
  1.3766E-09
  5.1385E-09
  5.1385E-09
  5.1385E-09
  5.1385E-09
  5.1385E-09
  5.1385E-09
  5.1385E-09
  5.1385E-09
  5.1385E-09
  1.9180E-08
  1.9180E-08
  1.9180E-08
  1.9180E-08
  1.9180E-08
  1.9180E-08
  1.9180E-08
  1.9180E-08
  1.9180E-08
  7.1594E-08
  7.1594E-08
  7.1594E-08
  7.1594E-08
  7.1594E-08
  7.1594E-08
  7.1594E-08
  7.1594E-08
  7.1594E-08
  2.6724E-07
  2.6724E-07
  2.6724E-07
  2.6724E-07
  2.6724E-07
  2.6724E-07
  2.6724E-07
  2.6724E-07
  2.6724E-07
  9.9752E-07
  9.9752E-07
  9.9752E-07
  9.9752E-07
  9.9752E-07
  9.9752E-07
  9.9752E-07
  9.9752E-07
  9.9752E-07
  3.7234E-06
  3.7234E-06
  3.7234E-06
  3.7234E-06
  3.7234E-06
  3.7234E-06
  3.7234E-06
  3.7234E-06
  3.7234E-06
  1.3898E-05
  1.3898E-05
  1.3898E-05
  1.3898E-05
  1.3898E-05
  1.3898E-05
  1.3898E-05
  1.3898E-05
  1.3898E-05
  5.1878E-05
  5.1878E-05
  5.1878E-05
  5.1878E-05
  5.1878E-05
  5.1878E-05
  5.1878E-05
  5.1878E-05
  5.1878E-05
  1.9364E-04
  1.9364E-04
  1.9364E-04
  1.9364E-04
  1.9364E-04
  1.9364E-04
  1.9364E-04
  1.9364E-04
  1.9364E-04
  7.2281E-04
  7.2281E-04
  7.2281E-04
  7.2281E-04
  7.2281E-04
  7.2281E-04
  7.2281E-04
  7.2281E-04
  7.2281E-04
  2.6980E-03
  2.6980E-03
  2.6980E-03
  2.6980E-03
  2.6980E-03
  2.6980E-03
  2.6980E-03
  2.6980E-03
  2.6980E-03
  1.0071E-02
  1.0071E-02
  1.0071E-02
  1.0071E-02
  1.0071E-02
  1.0071E-02
  1.0071E-02
  1.0071E-02
  1.0071E-02
  3.7591E-02
  3.7591E-02
  3.7591E-02
  3.7591E-02
  3.7591E-02
  3.7591E-02
  3.7591E-02
  3.7591E-02
  3.7591E-02
  1.4032E-01
  1.4032E-01
  1.4032E-01
  1.4032E-01
  1.4032E-01
  1.4032E-01
  1.4032E-01
  1.4032E-01
  1.4032E-01
  2.2134E-01
  2.2134E-01
  2.2134E-01
  2.2134E-01
  2.2134E-01
  2.2134E-01
  2.2134E-01
  2.2134E-01
  2.2134E-01
   1.1300E-02
  2.2326E-12
  2.2326E-12
  2.2326E-12
  2.2326E-12
  2.2326E-12
  2.2326E-12
  2.2326E-12
  2.2326E-12
  2.2326E-12
  6.6998E-12
  6.6998E-12
  6.6998E-12
  6.6998E-12
  6.6998E-12
  6.6998E-12
  6.6998E-12
  6.6998E-12
  6.6998E-12
  2.6804E-11
  2.6804E-11
  2.6804E-11
  2.6804E-11
  2.6804E-11
  2.6804E-11
  2.6804E-11
  2.6804E-11
  2.6804E-11
  1.0053E-10
  1.0053E-10
  1.0053E-10
  1.0053E-10
  1.0053E-10
  1.0053E-10
  1.0053E-10
  1.0053E-10
  1.0053E-10
  3.7539E-10
  3.7539E-10
  3.7539E-10
  3.7539E-10
  3.7539E-10
  3.7539E-10
  3.7539E-10
  3.7539E-10
  3.7539E-10
  1.4012E-09
  1.4012E-09
  1.4012E-09
  1.4012E-09
  1.4012E-09
  1.4012E-09
  1.4012E-09
  1.4012E-09
  1.4012E-09
  5.2304E-09
  5.2304E-09
  5.2304E-09
  5.2304E-09
  5.2304E-09
  5.2304E-09
  5.2304E-09
  5.2304E-09
  5.2304E-09
  1.9524E-08
  1.9524E-08
  1.9524E-08
  1.9524E-08
  1.9524E-08
  1.9524E-08
  1.9524E-08
  1.9524E-08
  1.9524E-08
  7.2876E-08
  7.2876E-08
  7.2876E-08
  7.2876E-08
  7.2876E-08
  7.2876E-08
  7.2876E-08
  7.2876E-08
  7.2876E-08
  2.7202E-07
  2.7202E-07
  2.7202E-07
  2.7202E-07
  2.7202E-07
  2.7202E-07
  2.7202E-07
  2.7202E-07
  2.7202E-07
  1.0154E-06
  1.0154E-06
  1.0154E-06
  1.0154E-06
  1.0154E-06
  1.0154E-06
  1.0154E-06
  1.0154E-06
  1.0154E-06
  3.7901E-06
  3.7901E-06
  3.7901E-06
  3.7901E-06
  3.7901E-06
  3.7901E-06
  3.7901E-06
  3.7901E-06
  3.7901E-06
  1.4147E-05
  1.4147E-05
  1.4147E-05
  1.4147E-05
  1.4147E-05
  1.4147E-05
  1.4147E-05
  1.4147E-05
  1.4147E-05
  5.2808E-05
  5.2808E-05
  5.2808E-05
  5.2808E-05
  5.2808E-05
  5.2808E-05
  5.2808E-05
  5.2808E-05
  5.2808E-05
  1.9711E-04
  1.9711E-04
  1.9711E-04
  1.9711E-04
  1.9711E-04
  1.9711E-04
  1.9711E-04
  1.9711E-04
  1.9711E-04
  7.3577E-04
  7.3577E-04
  7.3577E-04
  7.3577E-04
  7.3577E-04
  7.3577E-04
  7.3577E-04
  7.3577E-04
  7.3577E-04
  2.7464E-03
  2.7464E-03
  2.7464E-03
  2.7464E-03
  2.7464E-03
  2.7464E-03
  2.7464E-03
  2.7464E-03
  2.7464E-03
  1.0251E-02
  1.0251E-02
  1.0251E-02
  1.0251E-02
  1.0251E-02
  1.0251E-02
  1.0251E-02
  1.0251E-02
  1.0251E-02
  3.8266E-02
  3.8266E-02
  3.8266E-02
  3.8266E-02
  3.8266E-02
  3.8266E-02
  3.8266E-02
  3.8266E-02
  3.8266E-02
  1.4283E-01
  1.4283E-01
  1.4283E-01
  1.4283E-01
  1.4283E-01
  1.4283E-01
  1.4283E-01
  1.4283E-01
  1.4283E-01
  2.2531E-01
  2.2531E-01
  2.2531E-01
  2.2531E-01
  2.2531E-01
  2.2531E-01
  2.2531E-01
  2.2531E-01
  2.2531E-01
   1.1400E-02
  2.2722E-12
  2.2722E-12
  2.2722E-12
  2.2722E-12
  2.2722E-12
  2.2722E-12
  2.2722E-12
  2.2722E-12
  2.2722E-12
  6.8185E-12
  6.8185E-12
  6.8185E-12
  6.8185E-12
  6.8185E-12
  6.8185E-12
  6.8185E-12
  6.8185E-12
  6.8185E-12
  2.7279E-11
  2.7279E-11
  2.7279E-11
  2.7279E-11
  2.7279E-11
  2.7279E-11
  2.7279E-11
  2.7279E-11
  2.7279E-11
  1.0232E-10
  1.0232E-10
  1.0232E-10
  1.0232E-10
  1.0232E-10
  1.0232E-10
  1.0232E-10
  1.0232E-10
  1.0232E-10
  3.8204E-10
  3.8204E-10
  3.8204E-10
  3.8204E-10
  3.8204E-10
  3.8204E-10
  3.8204E-10
  3.8204E-10
  3.8204E-10
  1.4261E-09
  1.4261E-09
  1.4261E-09
  1.4261E-09
  1.4261E-09
  1.4261E-09
  1.4261E-09
  1.4261E-09
  1.4261E-09
  5.3232E-09
  5.3232E-09
  5.3232E-09
  5.3232E-09
  5.3232E-09
  5.3232E-09
  5.3232E-09
  5.3232E-09
  5.3232E-09
  1.9870E-08
  1.9870E-08
  1.9870E-08
  1.9870E-08
  1.9870E-08
  1.9870E-08
  1.9870E-08
  1.9870E-08
  1.9870E-08
  7.4169E-08
  7.4169E-08
  7.4169E-08
  7.4169E-08
  7.4169E-08
  7.4169E-08
  7.4169E-08
  7.4169E-08
  7.4169E-08
  2.7685E-07
  2.7685E-07
  2.7685E-07
  2.7685E-07
  2.7685E-07
  2.7685E-07
  2.7685E-07
  2.7685E-07
  2.7685E-07
  1.0334E-06
  1.0334E-06
  1.0334E-06
  1.0334E-06
  1.0334E-06
  1.0334E-06
  1.0334E-06
  1.0334E-06
  1.0334E-06
  3.8574E-06
  3.8574E-06
  3.8574E-06
  3.8574E-06
  3.8574E-06
  3.8574E-06
  3.8574E-06
  3.8574E-06
  3.8574E-06
  1.4398E-05
  1.4398E-05
  1.4398E-05
  1.4398E-05
  1.4398E-05
  1.4398E-05
  1.4398E-05
  1.4398E-05
  1.4398E-05
  5.3745E-05
  5.3745E-05
  5.3745E-05
  5.3745E-05
  5.3745E-05
  5.3745E-05
  5.3745E-05
  5.3745E-05
  5.3745E-05
  2.0061E-04
  2.0061E-04
  2.0061E-04
  2.0061E-04
  2.0061E-04
  2.0061E-04
  2.0061E-04
  2.0061E-04
  2.0061E-04
  7.4884E-04
  7.4884E-04
  7.4884E-04
  7.4884E-04
  7.4884E-04
  7.4884E-04
  7.4884E-04
  7.4884E-04
  7.4884E-04
  2.7952E-03
  2.7952E-03
  2.7952E-03
  2.7952E-03
  2.7952E-03
  2.7952E-03
  2.7952E-03
  2.7952E-03
  2.7952E-03
  1.0434E-02
  1.0434E-02
  1.0434E-02
  1.0434E-02
  1.0434E-02
  1.0434E-02
  1.0434E-02
  1.0434E-02
  1.0434E-02
  3.8946E-02
  3.8946E-02
  3.8946E-02
  3.8946E-02
  3.8946E-02
  3.8946E-02
  3.8946E-02
  3.8946E-02
  3.8946E-02
  1.4537E-01
  1.4537E-01
  1.4537E-01
  1.4537E-01
  1.4537E-01
  1.4537E-01
  1.4537E-01
  1.4537E-01
  1.4537E-01
  2.2931E-01
  2.2931E-01
  2.2931E-01
  2.2931E-01
  2.2931E-01
  2.2931E-01
  2.2931E-01
  2.2931E-01
  2.2931E-01
   1.1500E-02
  2.3120E-12
  2.3120E-12
  2.3120E-12
  2.3120E-12
  2.3120E-12
  2.3120E-12
  2.3120E-12
  2.3120E-12
  2.3120E-12
  6.9382E-12
  6.9382E-12
  6.9382E-12
  6.9382E-12
  6.9382E-12
  6.9382E-12
  6.9382E-12
  6.9382E-12
  6.9382E-12
  2.7758E-11
  2.7758E-11
  2.7758E-11
  2.7758E-11
  2.7758E-11
  2.7758E-11
  2.7758E-11
  2.7758E-11
  2.7758E-11
  1.0411E-10
  1.0411E-10
  1.0411E-10
  1.0411E-10
  1.0411E-10
  1.0411E-10
  1.0411E-10
  1.0411E-10
  1.0411E-10
  3.8876E-10
  3.8876E-10
  3.8876E-10
  3.8876E-10
  3.8876E-10
  3.8876E-10
  3.8876E-10
  3.8876E-10
  3.8876E-10
  1.4512E-09
  1.4512E-09
  1.4512E-09
  1.4512E-09
  1.4512E-09
  1.4512E-09
  1.4512E-09
  1.4512E-09
  1.4512E-09
  5.4168E-09
  5.4168E-09
  5.4168E-09
  5.4168E-09
  5.4168E-09
  5.4168E-09
  5.4168E-09
  5.4168E-09
  5.4168E-09
  2.0219E-08
  2.0219E-08
  2.0219E-08
  2.0219E-08
  2.0219E-08
  2.0219E-08
  2.0219E-08
  2.0219E-08
  2.0219E-08
  7.5473E-08
  7.5473E-08
  7.5473E-08
  7.5473E-08
  7.5473E-08
  7.5473E-08
  7.5473E-08
  7.5473E-08
  7.5473E-08
  2.8172E-07
  2.8172E-07
  2.8172E-07
  2.8172E-07
  2.8172E-07
  2.8172E-07
  2.8172E-07
  2.8172E-07
  2.8172E-07
  1.0516E-06
  1.0516E-06
  1.0516E-06
  1.0516E-06
  1.0516E-06
  1.0516E-06
  1.0516E-06
  1.0516E-06
  1.0516E-06
  3.9252E-06
  3.9252E-06
  3.9252E-06
  3.9252E-06
  3.9252E-06
  3.9252E-06
  3.9252E-06
  3.9252E-06
  3.9252E-06
  1.4652E-05
  1.4652E-05
  1.4652E-05
  1.4652E-05
  1.4652E-05
  1.4652E-05
  1.4652E-05
  1.4652E-05
  1.4652E-05
  5.4691E-05
  5.4691E-05
  5.4691E-05
  5.4691E-05
  5.4691E-05
  5.4691E-05
  5.4691E-05
  5.4691E-05
  5.4691E-05
  2.0415E-04
  2.0415E-04
  2.0415E-04
  2.0415E-04
  2.0415E-04
  2.0415E-04
  2.0415E-04
  2.0415E-04
  2.0415E-04
  7.6202E-04
  7.6202E-04
  7.6202E-04
  7.6202E-04
  7.6202E-04
  7.6202E-04
  7.6202E-04
  7.6202E-04
  7.6202E-04
  2.8444E-03
  2.8444E-03
  2.8444E-03
  2.8444E-03
  2.8444E-03
  2.8444E-03
  2.8444E-03
  2.8444E-03
  2.8444E-03
  1.0617E-02
  1.0617E-02
  1.0617E-02
  1.0617E-02
  1.0617E-02
  1.0617E-02
  1.0617E-02
  1.0617E-02
  1.0617E-02
  3.9632E-02
  3.9632E-02
  3.9632E-02
  3.9632E-02
  3.9632E-02
  3.9632E-02
  3.9632E-02
  3.9632E-02
  3.9632E-02
  1.4793E-01
  1.4793E-01
  1.4793E-01
  1.4793E-01
  1.4793E-01
  1.4793E-01
  1.4793E-01
  1.4793E-01
  1.4793E-01
  2.3335E-01
  2.3335E-01
  2.3335E-01
  2.3335E-01
  2.3335E-01
  2.3335E-01
  2.3335E-01
  2.3335E-01
  2.3335E-01
   1.1600E-02
  2.3523E-12
  2.3523E-12
  2.3523E-12
  2.3523E-12
  2.3523E-12
  2.3523E-12
  2.3523E-12
  2.3523E-12
  2.3523E-12
  7.0590E-12
  7.0590E-12
  7.0590E-12
  7.0590E-12
  7.0590E-12
  7.0590E-12
  7.0590E-12
  7.0590E-12
  7.0590E-12
  2.8242E-11
  2.8242E-11
  2.8242E-11
  2.8242E-11
  2.8242E-11
  2.8242E-11
  2.8242E-11
  2.8242E-11
  2.8242E-11
  1.0593E-10
  1.0593E-10
  1.0593E-10
  1.0593E-10
  1.0593E-10
  1.0593E-10
  1.0593E-10
  1.0593E-10
  1.0593E-10
  3.9553E-10
  3.9553E-10
  3.9553E-10
  3.9553E-10
  3.9553E-10
  3.9553E-10
  3.9553E-10
  3.9553E-10
  3.9553E-10
  1.4764E-09
  1.4764E-09
  1.4764E-09
  1.4764E-09
  1.4764E-09
  1.4764E-09
  1.4764E-09
  1.4764E-09
  1.4764E-09
  5.5111E-09
  5.5111E-09
  5.5111E-09
  5.5111E-09
  5.5111E-09
  5.5111E-09
  5.5111E-09
  5.5111E-09
  5.5111E-09
  2.0572E-08
  2.0572E-08
  2.0572E-08
  2.0572E-08
  2.0572E-08
  2.0572E-08
  2.0572E-08
  2.0572E-08
  2.0572E-08
  7.6788E-08
  7.6788E-08
  7.6788E-08
  7.6788E-08
  7.6788E-08
  7.6788E-08
  7.6788E-08
  7.6788E-08
  7.6788E-08
  2.8663E-07
  2.8663E-07
  2.8663E-07
  2.8663E-07
  2.8663E-07
  2.8663E-07
  2.8663E-07
  2.8663E-07
  2.8663E-07
  1.0699E-06
  1.0699E-06
  1.0699E-06
  1.0699E-06
  1.0699E-06
  1.0699E-06
  1.0699E-06
  1.0699E-06
  1.0699E-06
  3.9937E-06
  3.9937E-06
  3.9937E-06
  3.9937E-06
  3.9937E-06
  3.9937E-06
  3.9937E-06
  3.9937E-06
  3.9937E-06
  1.4907E-05
  1.4907E-05
  1.4907E-05
  1.4907E-05
  1.4907E-05
  1.4907E-05
  1.4907E-05
  1.4907E-05
  1.4907E-05
  5.5645E-05
  5.5645E-05
  5.5645E-05
  5.5645E-05
  5.5645E-05
  5.5645E-05
  5.5645E-05
  5.5645E-05
  5.5645E-05
  2.0771E-04
  2.0771E-04
  2.0771E-04
  2.0771E-04
  2.0771E-04
  2.0771E-04
  2.0771E-04
  2.0771E-04
  2.0771E-04
  7.7532E-04
  7.7532E-04
  7.7532E-04
  7.7532E-04
  7.7532E-04
  7.7532E-04
  7.7532E-04
  7.7532E-04
  7.7532E-04
  2.8941E-03
  2.8941E-03
  2.8941E-03
  2.8941E-03
  2.8941E-03
  2.8941E-03
  2.8941E-03
  2.8941E-03
  2.8941E-03
  1.0803E-02
  1.0803E-02
  1.0803E-02
  1.0803E-02
  1.0803E-02
  1.0803E-02
  1.0803E-02
  1.0803E-02
  1.0803E-02
  4.0324E-02
  4.0324E-02
  4.0324E-02
  4.0324E-02
  4.0324E-02
  4.0324E-02
  4.0324E-02
  4.0324E-02
  4.0324E-02
  1.5052E-01
  1.5052E-01
  1.5052E-01
  1.5052E-01
  1.5052E-01
  1.5052E-01
  1.5052E-01
  1.5052E-01
  1.5052E-01
  2.3743E-01
  2.3743E-01
  2.3743E-01
  2.3743E-01
  2.3743E-01
  2.3743E-01
  2.3743E-01
  2.3743E-01
  2.3743E-01
   1.1700E-02
  2.3929E-12
  2.3929E-12
  2.3929E-12
  2.3929E-12
  2.3929E-12
  2.3929E-12
  2.3929E-12
  2.3929E-12
  2.3929E-12
  7.1808E-12
  7.1808E-12
  7.1808E-12
  7.1808E-12
  7.1808E-12
  7.1808E-12
  7.1808E-12
  7.1808E-12
  7.1808E-12
  2.8729E-11
  2.8729E-11
  2.8729E-11
  2.8729E-11
  2.8729E-11
  2.8729E-11
  2.8729E-11
  2.8729E-11
  2.8729E-11
  1.0775E-10
  1.0775E-10
  1.0775E-10
  1.0775E-10
  1.0775E-10
  1.0775E-10
  1.0775E-10
  1.0775E-10
  1.0775E-10
  4.0236E-10
  4.0236E-10
  4.0236E-10
  4.0236E-10
  4.0236E-10
  4.0236E-10
  4.0236E-10
  4.0236E-10
  4.0236E-10
  1.5019E-09
  1.5019E-09
  1.5019E-09
  1.5019E-09
  1.5019E-09
  1.5019E-09
  1.5019E-09
  1.5019E-09
  1.5019E-09
  5.6063E-09
  5.6063E-09
  5.6063E-09
  5.6063E-09
  5.6063E-09
  5.6063E-09
  5.6063E-09
  5.6063E-09
  5.6063E-09
  2.0927E-08
  2.0927E-08
  2.0927E-08
  2.0927E-08
  2.0927E-08
  2.0927E-08
  2.0927E-08
  2.0927E-08
  2.0927E-08
  7.8115E-08
  7.8115E-08
  7.8115E-08
  7.8115E-08
  7.8115E-08
  7.8115E-08
  7.8115E-08
  7.8115E-08
  7.8115E-08
  2.9158E-07
  2.9158E-07
  2.9158E-07
  2.9158E-07
  2.9158E-07
  2.9158E-07
  2.9158E-07
  2.9158E-07
  2.9158E-07
  1.0884E-06
  1.0884E-06
  1.0884E-06
  1.0884E-06
  1.0884E-06
  1.0884E-06
  1.0884E-06
  1.0884E-06
  1.0884E-06
  4.0627E-06
  4.0627E-06
  4.0627E-06
  4.0627E-06
  4.0627E-06
  4.0627E-06
  4.0627E-06
  4.0627E-06
  4.0627E-06
  1.5165E-05
  1.5165E-05
  1.5165E-05
  1.5165E-05
  1.5165E-05
  1.5165E-05
  1.5165E-05
  1.5165E-05
  1.5165E-05
  5.6607E-05
  5.6607E-05
  5.6607E-05
  5.6607E-05
  5.6607E-05
  5.6607E-05
  5.6607E-05
  5.6607E-05
  5.6607E-05
  2.1130E-04
  2.1130E-04
  2.1130E-04
  2.1130E-04
  2.1130E-04
  2.1130E-04
  2.1130E-04
  2.1130E-04
  2.1130E-04
  7.8873E-04
  7.8873E-04
  7.8873E-04
  7.8873E-04
  7.8873E-04
  7.8873E-04
  7.8873E-04
  7.8873E-04
  7.8873E-04
  2.9441E-03
  2.9441E-03
  2.9441E-03
  2.9441E-03
  2.9441E-03
  2.9441E-03
  2.9441E-03
  2.9441E-03
  2.9441E-03
  1.0990E-02
  1.0990E-02
  1.0990E-02
  1.0990E-02
  1.0990E-02
  1.0990E-02
  1.0990E-02
  1.0990E-02
  1.0990E-02
  4.1022E-02
  4.1022E-02
  4.1022E-02
  4.1022E-02
  4.1022E-02
  4.1022E-02
  4.1022E-02
  4.1022E-02
  4.1022E-02
  1.5312E-01
  1.5312E-01
  1.5312E-01
  1.5312E-01
  1.5312E-01
  1.5312E-01
  1.5312E-01
  1.5312E-01
  1.5312E-01
  2.4154E-01
  2.4154E-01
  2.4154E-01
  2.4154E-01
  2.4154E-01
  2.4154E-01
  2.4154E-01
  2.4154E-01
  2.4154E-01
   1.1800E-02
  2.4338E-12
  2.4338E-12
  2.4338E-12
  2.4338E-12
  2.4338E-12
  2.4338E-12
  2.4338E-12
  2.4338E-12
  2.4338E-12
  7.3036E-12
  7.3036E-12
  7.3036E-12
  7.3036E-12
  7.3036E-12
  7.3036E-12
  7.3036E-12
  7.3036E-12
  7.3036E-12
  2.9221E-11
  2.9221E-11
  2.9221E-11
  2.9221E-11
  2.9221E-11
  2.9221E-11
  2.9221E-11
  2.9221E-11
  2.9221E-11
  1.0960E-10
  1.0960E-10
  1.0960E-10
  1.0960E-10
  1.0960E-10
  1.0960E-10
  1.0960E-10
  1.0960E-10
  1.0960E-10
  4.0924E-10
  4.0924E-10
  4.0924E-10
  4.0924E-10
  4.0924E-10
  4.0924E-10
  4.0924E-10
  4.0924E-10
  4.0924E-10
  1.5276E-09
  1.5276E-09
  1.5276E-09
  1.5276E-09
  1.5276E-09
  1.5276E-09
  1.5276E-09
  1.5276E-09
  1.5276E-09
  5.7023E-09
  5.7023E-09
  5.7023E-09
  5.7023E-09
  5.7023E-09
  5.7023E-09
  5.7023E-09
  5.7023E-09
  5.7023E-09
  2.1285E-08
  2.1285E-08
  2.1285E-08
  2.1285E-08
  2.1285E-08
  2.1285E-08
  2.1285E-08
  2.1285E-08
  2.1285E-08
  7.9453E-08
  7.9453E-08
  7.9453E-08
  7.9453E-08
  7.9453E-08
  7.9453E-08
  7.9453E-08
  7.9453E-08
  7.9453E-08
  2.9658E-07
  2.9658E-07
  2.9658E-07
  2.9658E-07
  2.9658E-07
  2.9658E-07
  2.9658E-07
  2.9658E-07
  2.9658E-07
  1.1071E-06
  1.1071E-06
  1.1071E-06
  1.1071E-06
  1.1071E-06
  1.1071E-06
  1.1071E-06
  1.1071E-06
  1.1071E-06
  4.1324E-06
  4.1324E-06
  4.1324E-06
  4.1324E-06
  4.1324E-06
  4.1324E-06
  4.1324E-06
  4.1324E-06
  4.1324E-06
  1.5425E-05
  1.5425E-05
  1.5425E-05
  1.5425E-05
  1.5425E-05
  1.5425E-05
  1.5425E-05
  1.5425E-05
  1.5425E-05
  5.7578E-05
  5.7578E-05
  5.7578E-05
  5.7578E-05
  5.7578E-05
  5.7578E-05
  5.7578E-05
  5.7578E-05
  5.7578E-05
  2.1492E-04
  2.1492E-04
  2.1492E-04
  2.1492E-04
  2.1492E-04
  2.1492E-04
  2.1492E-04
  2.1492E-04
  2.1492E-04
  8.0226E-04
  8.0226E-04
  8.0226E-04
  8.0226E-04
  8.0226E-04
  8.0226E-04
  8.0226E-04
  8.0226E-04
  8.0226E-04
  2.9946E-03
  2.9946E-03
  2.9946E-03
  2.9946E-03
  2.9946E-03
  2.9946E-03
  2.9946E-03
  2.9946E-03
  2.9946E-03
  1.1178E-02
  1.1178E-02
  1.1178E-02
  1.1178E-02
  1.1178E-02
  1.1178E-02
  1.1178E-02
  1.1178E-02
  1.1178E-02
  4.1726E-02
  4.1726E-02
  4.1726E-02
  4.1726E-02
  4.1726E-02
  4.1726E-02
  4.1726E-02
  4.1726E-02
  4.1726E-02
  1.5575E-01
  1.5575E-01
  1.5575E-01
  1.5575E-01
  1.5575E-01
  1.5575E-01
  1.5575E-01
  1.5575E-01
  1.5575E-01
  2.4568E-01
  2.4568E-01
  2.4568E-01
  2.4568E-01
  2.4568E-01
  2.4568E-01
  2.4568E-01
  2.4568E-01
  2.4568E-01
   1.1900E-02
  2.4750E-12
  2.4750E-12
  2.4750E-12
  2.4750E-12
  2.4750E-12
  2.4750E-12
  2.4750E-12
  2.4750E-12
  2.4750E-12
  7.4275E-12
  7.4275E-12
  7.4275E-12
  7.4275E-12
  7.4275E-12
  7.4275E-12
  7.4275E-12
  7.4275E-12
  7.4275E-12
  2.9716E-11
  2.9716E-11
  2.9716E-11
  2.9716E-11
  2.9716E-11
  2.9716E-11
  2.9716E-11
  2.9716E-11
  2.9716E-11
  1.1146E-10
  1.1146E-10
  1.1146E-10
  1.1146E-10
  1.1146E-10
  1.1146E-10
  1.1146E-10
  1.1146E-10
  1.1146E-10
  4.1619E-10
  4.1619E-10
  4.1619E-10
  4.1619E-10
  4.1619E-10
  4.1619E-10
  4.1619E-10
  4.1619E-10
  4.1619E-10
  1.5536E-09
  1.5536E-09
  1.5536E-09
  1.5536E-09
  1.5536E-09
  1.5536E-09
  1.5536E-09
  1.5536E-09
  1.5536E-09
  5.7991E-09
  5.7991E-09
  5.7991E-09
  5.7991E-09
  5.7991E-09
  5.7991E-09
  5.7991E-09
  5.7991E-09
  5.7991E-09
  2.1647E-08
  2.1647E-08
  2.1647E-08
  2.1647E-08
  2.1647E-08
  2.1647E-08
  2.1647E-08
  2.1647E-08
  2.1647E-08
  8.0802E-08
  8.0802E-08
  8.0802E-08
  8.0802E-08
  8.0802E-08
  8.0802E-08
  8.0802E-08
  8.0802E-08
  8.0802E-08
  3.0162E-07
  3.0162E-07
  3.0162E-07
  3.0162E-07
  3.0162E-07
  3.0162E-07
  3.0162E-07
  3.0162E-07
  3.0162E-07
  1.1259E-06
  1.1259E-06
  1.1259E-06
  1.1259E-06
  1.1259E-06
  1.1259E-06
  1.1259E-06
  1.1259E-06
  1.1259E-06
  4.2026E-06
  4.2026E-06
  4.2026E-06
  4.2026E-06
  4.2026E-06
  4.2026E-06
  4.2026E-06
  4.2026E-06
  4.2026E-06
  1.5687E-05
  1.5687E-05
  1.5687E-05
  1.5687E-05
  1.5687E-05
  1.5687E-05
  1.5687E-05
  1.5687E-05
  1.5687E-05
  5.8557E-05
  5.8557E-05
  5.8557E-05
  5.8557E-05
  5.8557E-05
  5.8557E-05
  5.8557E-05
  5.8557E-05
  5.8557E-05
  2.1858E-04
  2.1858E-04
  2.1858E-04
  2.1858E-04
  2.1858E-04
  2.1858E-04
  2.1858E-04
  2.1858E-04
  2.1858E-04
  8.1590E-04
  8.1590E-04
  8.1590E-04
  8.1590E-04
  8.1590E-04
  8.1590E-04
  8.1590E-04
  8.1590E-04
  8.1590E-04
  3.0456E-03
  3.0456E-03
  3.0456E-03
  3.0456E-03
  3.0456E-03
  3.0456E-03
  3.0456E-03
  3.0456E-03
  3.0456E-03
  1.1368E-02
  1.1368E-02
  1.1368E-02
  1.1368E-02
  1.1368E-02
  1.1368E-02
  1.1368E-02
  1.1368E-02
  1.1368E-02
  4.2436E-02
  4.2436E-02
  4.2436E-02
  4.2436E-02
  4.2436E-02
  4.2436E-02
  4.2436E-02
  4.2436E-02
  4.2436E-02
  1.5840E-01
  1.5840E-01
  1.5840E-01
  1.5840E-01
  1.5840E-01
  1.5840E-01
  1.5840E-01
  1.5840E-01
  1.5840E-01
  2.4987E-01
  2.4987E-01
  2.4987E-01
  2.4987E-01
  2.4987E-01
  2.4987E-01
  2.4987E-01
  2.4987E-01
  2.4987E-01
   1.2000E-02
  2.5166E-12
  2.5166E-12
  2.5166E-12
  2.5166E-12
  2.5166E-12
  2.5166E-12
  2.5166E-12
  2.5166E-12
  2.5166E-12
  7.5524E-12
  7.5524E-12
  7.5524E-12
  7.5524E-12
  7.5524E-12
  7.5524E-12
  7.5524E-12
  7.5524E-12
  7.5524E-12
  3.0216E-11
  3.0216E-11
  3.0216E-11
  3.0216E-11
  3.0216E-11
  3.0216E-11
  3.0216E-11
  3.0216E-11
  3.0216E-11
  1.1333E-10
  1.1333E-10
  1.1333E-10
  1.1333E-10
  1.1333E-10
  1.1333E-10
  1.1333E-10
  1.1333E-10
  1.1333E-10
  4.2319E-10
  4.2319E-10
  4.2319E-10
  4.2319E-10
  4.2319E-10
  4.2319E-10
  4.2319E-10
  4.2319E-10
  4.2319E-10
  1.5797E-09
  1.5797E-09
  1.5797E-09
  1.5797E-09
  1.5797E-09
  1.5797E-09
  1.5797E-09
  1.5797E-09
  1.5797E-09
  5.8967E-09
  5.8967E-09
  5.8967E-09
  5.8967E-09
  5.8967E-09
  5.8967E-09
  5.8967E-09
  5.8967E-09
  5.8967E-09
  2.2011E-08
  2.2011E-08
  2.2011E-08
  2.2011E-08
  2.2011E-08
  2.2011E-08
  2.2011E-08
  2.2011E-08
  2.2011E-08
  8.2163E-08
  8.2163E-08
  8.2163E-08
  8.2163E-08
  8.2163E-08
  8.2163E-08
  8.2163E-08
  8.2163E-08
  8.2163E-08
  3.0670E-07
  3.0670E-07
  3.0670E-07
  3.0670E-07
  3.0670E-07
  3.0670E-07
  3.0670E-07
  3.0670E-07
  3.0670E-07
  1.1448E-06
  1.1448E-06
  1.1448E-06
  1.1448E-06
  1.1448E-06
  1.1448E-06
  1.1448E-06
  1.1448E-06
  1.1448E-06
  4.2734E-06
  4.2734E-06
  4.2734E-06
  4.2734E-06
  4.2734E-06
  4.2734E-06
  4.2734E-06
  4.2734E-06
  4.2734E-06
  1.5952E-05
  1.5952E-05
  1.5952E-05
  1.5952E-05
  1.5952E-05
  1.5952E-05
  1.5952E-05
  1.5952E-05
  1.5952E-05
  5.9544E-05
  5.9544E-05
  5.9544E-05
  5.9544E-05
  5.9544E-05
  5.9544E-05
  5.9544E-05
  5.9544E-05
  5.9544E-05
  2.2226E-04
  2.2226E-04
  2.2226E-04
  2.2226E-04
  2.2226E-04
  2.2226E-04
  2.2226E-04
  2.2226E-04
  2.2226E-04
  8.2966E-04
  8.2966E-04
  8.2966E-04
  8.2966E-04
  8.2966E-04
  8.2966E-04
  8.2966E-04
  8.2966E-04
  8.2966E-04
  3.0969E-03
  3.0969E-03
  3.0969E-03
  3.0969E-03
  3.0969E-03
  3.0969E-03
  3.0969E-03
  3.0969E-03
  3.0969E-03
  1.1560E-02
  1.1560E-02
  1.1560E-02
  1.1560E-02
  1.1560E-02
  1.1560E-02
  1.1560E-02
  1.1560E-02
  1.1560E-02
  4.3151E-02
  4.3151E-02
  4.3151E-02
  4.3151E-02
  4.3151E-02
  4.3151E-02
  4.3151E-02
  4.3151E-02
  4.3151E-02
  1.6107E-01
  1.6107E-01
  1.6107E-01
  1.6107E-01
  1.6107E-01
  1.6107E-01
  1.6107E-01
  1.6107E-01
  1.6107E-01
  2.5408E-01
  2.5408E-01
  2.5408E-01
  2.5408E-01
  2.5408E-01
  2.5408E-01
  2.5408E-01
  2.5408E-01
  2.5408E-01
   1.2100E-02
  2.5586E-12
  2.5586E-12
  2.5586E-12
  2.5586E-12
  2.5586E-12
  2.5586E-12
  2.5586E-12
  2.5586E-12
  2.5586E-12
  7.6783E-12
  7.6783E-12
  7.6783E-12
  7.6783E-12
  7.6783E-12
  7.6783E-12
  7.6783E-12
  7.6783E-12
  7.6783E-12
  3.0720E-11
  3.0720E-11
  3.0720E-11
  3.0720E-11
  3.0720E-11
  3.0720E-11
  3.0720E-11
  3.0720E-11
  3.0720E-11
  1.1522E-10
  1.1522E-10
  1.1522E-10
  1.1522E-10
  1.1522E-10
  1.1522E-10
  1.1522E-10
  1.1522E-10
  1.1522E-10
  4.3025E-10
  4.3025E-10
  4.3025E-10
  4.3025E-10
  4.3025E-10
  4.3025E-10
  4.3025E-10
  4.3025E-10
  4.3025E-10
  1.6061E-09
  1.6061E-09
  1.6061E-09
  1.6061E-09
  1.6061E-09
  1.6061E-09
  1.6061E-09
  1.6061E-09
  1.6061E-09
  5.9952E-09
  5.9952E-09
  5.9952E-09
  5.9952E-09
  5.9952E-09
  5.9952E-09
  5.9952E-09
  5.9952E-09
  5.9952E-09
  2.2379E-08
  2.2379E-08
  2.2379E-08
  2.2379E-08
  2.2379E-08
  2.2379E-08
  2.2379E-08
  2.2379E-08
  2.2379E-08
  8.3535E-08
  8.3535E-08
  8.3535E-08
  8.3535E-08
  8.3535E-08
  8.3535E-08
  8.3535E-08
  8.3535E-08
  8.3535E-08
  3.1182E-07
  3.1182E-07
  3.1182E-07
  3.1182E-07
  3.1182E-07
  3.1182E-07
  3.1182E-07
  3.1182E-07
  3.1182E-07
  1.1640E-06
  1.1640E-06
  1.1640E-06
  1.1640E-06
  1.1640E-06
  1.1640E-06
  1.1640E-06
  1.1640E-06
  1.1640E-06
  4.3448E-06
  4.3448E-06
  4.3448E-06
  4.3448E-06
  4.3448E-06
  4.3448E-06
  4.3448E-06
  4.3448E-06
  4.3448E-06
  1.6218E-05
  1.6218E-05
  1.6218E-05
  1.6218E-05
  1.6218E-05
  1.6218E-05
  1.6218E-05
  1.6218E-05
  1.6218E-05
  6.0539E-05
  6.0539E-05
  6.0539E-05
  6.0539E-05
  6.0539E-05
  6.0539E-05
  6.0539E-05
  6.0539E-05
  6.0539E-05
  2.2598E-04
  2.2598E-04
  2.2598E-04
  2.2598E-04
  2.2598E-04
  2.2598E-04
  2.2598E-04
  2.2598E-04
  2.2598E-04
  8.4353E-04
  8.4353E-04
  8.4353E-04
  8.4353E-04
  8.4353E-04
  8.4353E-04
  8.4353E-04
  8.4353E-04
  8.4353E-04
  3.1487E-03
  3.1487E-03
  3.1487E-03
  3.1487E-03
  3.1487E-03
  3.1487E-03
  3.1487E-03
  3.1487E-03
  3.1487E-03
  1.1754E-02
  1.1754E-02
  1.1754E-02
  1.1754E-02
  1.1754E-02
  1.1754E-02
  1.1754E-02
  1.1754E-02
  1.1754E-02
  4.3873E-02
  4.3873E-02
  4.3873E-02
  4.3873E-02
  4.3873E-02
  4.3873E-02
  4.3873E-02
  4.3873E-02
  4.3873E-02
  1.6377E-01
  1.6377E-01
  1.6377E-01
  1.6377E-01
  1.6377E-01
  1.6377E-01
  1.6377E-01
  1.6377E-01
  1.6377E-01
  2.5833E-01
  2.5833E-01
  2.5833E-01
  2.5833E-01
  2.5833E-01
  2.5833E-01
  2.5833E-01
  2.5833E-01
  2.5833E-01
   1.2200E-02
  2.6009E-12
  2.6009E-12
  2.6009E-12
  2.6009E-12
  2.6009E-12
  2.6009E-12
  2.6009E-12
  2.6009E-12
  2.6009E-12
  7.8053E-12
  7.8053E-12
  7.8053E-12
  7.8053E-12
  7.8053E-12
  7.8053E-12
  7.8053E-12
  7.8053E-12
  7.8053E-12
  3.1228E-11
  3.1228E-11
  3.1228E-11
  3.1228E-11
  3.1228E-11
  3.1228E-11
  3.1228E-11
  3.1228E-11
  3.1228E-11
  1.1713E-10
  1.1713E-10
  1.1713E-10
  1.1713E-10
  1.1713E-10
  1.1713E-10
  1.1713E-10
  1.1713E-10
  1.1713E-10
  4.3737E-10
  4.3737E-10
  4.3737E-10
  4.3737E-10
  4.3737E-10
  4.3737E-10
  4.3737E-10
  4.3737E-10
  4.3737E-10
  1.6327E-09
  1.6327E-09
  1.6327E-09
  1.6327E-09
  1.6327E-09
  1.6327E-09
  1.6327E-09
  1.6327E-09
  1.6327E-09
  6.0944E-09
  6.0944E-09
  6.0944E-09
  6.0944E-09
  6.0944E-09
  6.0944E-09
  6.0944E-09
  6.0944E-09
  6.0944E-09
  2.2749E-08
  2.2749E-08
  2.2749E-08
  2.2749E-08
  2.2749E-08
  2.2749E-08
  2.2749E-08
  2.2749E-08
  2.2749E-08
  8.4918E-08
  8.4918E-08
  8.4918E-08
  8.4918E-08
  8.4918E-08
  8.4918E-08
  8.4918E-08
  8.4918E-08
  8.4918E-08
  3.1698E-07
  3.1698E-07
  3.1698E-07
  3.1698E-07
  3.1698E-07
  3.1698E-07
  3.1698E-07
  3.1698E-07
  3.1698E-07
  1.1832E-06
  1.1832E-06
  1.1832E-06
  1.1832E-06
  1.1832E-06
  1.1832E-06
  1.1832E-06
  1.1832E-06
  1.1832E-06
  4.4168E-06
  4.4168E-06
  4.4168E-06
  4.4168E-06
  4.4168E-06
  4.4168E-06
  4.4168E-06
  4.4168E-06
  4.4168E-06
  1.6487E-05
  1.6487E-05
  1.6487E-05
  1.6487E-05
  1.6487E-05
  1.6487E-05
  1.6487E-05
  1.6487E-05
  1.6487E-05
  6.1542E-05
  6.1542E-05
  6.1542E-05
  6.1542E-05
  6.1542E-05
  6.1542E-05
  6.1542E-05
  6.1542E-05
  6.1542E-05
  2.2973E-04
  2.2973E-04
  2.2973E-04
  2.2973E-04
  2.2973E-04
  2.2973E-04
  2.2973E-04
  2.2973E-04
  2.2973E-04
  8.5752E-04
  8.5752E-04
  8.5752E-04
  8.5752E-04
  8.5752E-04
  8.5752E-04
  8.5752E-04
  8.5752E-04
  8.5752E-04
  3.2009E-03
  3.2009E-03
  3.2009E-03
  3.2009E-03
  3.2009E-03
  3.2009E-03
  3.2009E-03
  3.2009E-03
  3.2009E-03
  1.1948E-02
  1.1948E-02
  1.1948E-02
  1.1948E-02
  1.1948E-02
  1.1948E-02
  1.1948E-02
  1.1948E-02
  1.1948E-02
  4.4601E-02
  4.4601E-02
  4.4601E-02
  4.4601E-02
  4.4601E-02
  4.4601E-02
  4.4601E-02
  4.4601E-02
  4.4601E-02
  1.6649E-01
  1.6649E-01
  1.6649E-01
  1.6649E-01
  1.6649E-01
  1.6649E-01
  1.6649E-01
  1.6649E-01
  1.6649E-01
  2.6262E-01
  2.6262E-01
  2.6262E-01
  2.6262E-01
  2.6262E-01
  2.6262E-01
  2.6262E-01
  2.6262E-01
  2.6262E-01
   1.2300E-02
  2.6435E-12
  2.6435E-12
  2.6435E-12
  2.6435E-12
  2.6435E-12
  2.6435E-12
  2.6435E-12
  2.6435E-12
  2.6435E-12
  7.9332E-12
  7.9332E-12
  7.9332E-12
  7.9332E-12
  7.9332E-12
  7.9332E-12
  7.9332E-12
  7.9332E-12
  7.9332E-12
  3.1740E-11
  3.1740E-11
  3.1740E-11
  3.1740E-11
  3.1740E-11
  3.1740E-11
  3.1740E-11
  3.1740E-11
  3.1740E-11
  1.1905E-10
  1.1905E-10
  1.1905E-10
  1.1905E-10
  1.1905E-10
  1.1905E-10
  1.1905E-10
  1.1905E-10
  1.1905E-10
  4.4455E-10
  4.4455E-10
  4.4455E-10
  4.4455E-10
  4.4455E-10
  4.4455E-10
  4.4455E-10
  4.4455E-10
  4.4455E-10
  1.6594E-09
  1.6594E-09
  1.6594E-09
  1.6594E-09
  1.6594E-09
  1.6594E-09
  1.6594E-09
  1.6594E-09
  1.6594E-09
  6.1944E-09
  6.1944E-09
  6.1944E-09
  6.1944E-09
  6.1944E-09
  6.1944E-09
  6.1944E-09
  6.1944E-09
  6.1944E-09
  2.3123E-08
  2.3123E-08
  2.3123E-08
  2.3123E-08
  2.3123E-08
  2.3123E-08
  2.3123E-08
  2.3123E-08
  2.3123E-08
  8.6312E-08
  8.6312E-08
  8.6312E-08
  8.6312E-08
  8.6312E-08
  8.6312E-08
  8.6312E-08
  8.6312E-08
  8.6312E-08
  3.2219E-07
  3.2219E-07
  3.2219E-07
  3.2219E-07
  3.2219E-07
  3.2219E-07
  3.2219E-07
  3.2219E-07
  3.2219E-07
  1.2027E-06
  1.2027E-06
  1.2027E-06
  1.2027E-06
  1.2027E-06
  1.2027E-06
  1.2027E-06
  1.2027E-06
  1.2027E-06
  4.4893E-06
  4.4893E-06
  4.4893E-06
  4.4893E-06
  4.4893E-06
  4.4893E-06
  4.4893E-06
  4.4893E-06
  4.4893E-06
  1.6758E-05
  1.6758E-05
  1.6758E-05
  1.6758E-05
  1.6758E-05
  1.6758E-05
  1.6758E-05
  1.6758E-05
  1.6758E-05
  6.2554E-05
  6.2554E-05
  6.2554E-05
  6.2554E-05
  6.2554E-05
  6.2554E-05
  6.2554E-05
  6.2554E-05
  6.2554E-05
  2.3350E-04
  2.3350E-04
  2.3350E-04
  2.3350E-04
  2.3350E-04
  2.3350E-04
  2.3350E-04
  2.3350E-04
  2.3350E-04
  8.7162E-04
  8.7162E-04
  8.7162E-04
  8.7162E-04
  8.7162E-04
  8.7162E-04
  8.7162E-04
  8.7162E-04
  8.7162E-04
  3.2536E-03
  3.2536E-03
  3.2536E-03
  3.2536E-03
  3.2536E-03
  3.2536E-03
  3.2536E-03
  3.2536E-03
  3.2536E-03
  1.2145E-02
  1.2145E-02
  1.2145E-02
  1.2145E-02
  1.2145E-02
  1.2145E-02
  1.2145E-02
  1.2145E-02
  1.2145E-02
  4.5335E-02
  4.5335E-02
  4.5335E-02
  4.5335E-02
  4.5335E-02
  4.5335E-02
  4.5335E-02
  4.5335E-02
  4.5335E-02
  1.6923E-01
  1.6923E-01
  1.6923E-01
  1.6923E-01
  1.6923E-01
  1.6923E-01
  1.6923E-01
  1.6923E-01
  1.6923E-01
  2.6694E-01
  2.6694E-01
  2.6694E-01
  2.6694E-01
  2.6694E-01
  2.6694E-01
  2.6694E-01
  2.6694E-01
  2.6694E-01
   1.2400E-02
  2.6865E-12
  2.6865E-12
  2.6865E-12
  2.6865E-12
  2.6865E-12
  2.6865E-12
  2.6865E-12
  2.6865E-12
  2.6865E-12
  8.0622E-12
  8.0622E-12
  8.0622E-12
  8.0622E-12
  8.0622E-12
  8.0622E-12
  8.0622E-12
  8.0622E-12
  8.0622E-12
  3.2257E-11
  3.2257E-11
  3.2257E-11
  3.2257E-11
  3.2257E-11
  3.2257E-11
  3.2257E-11
  3.2257E-11
  3.2257E-11
  1.2099E-10
  1.2099E-10
  1.2099E-10
  1.2099E-10
  1.2099E-10
  1.2099E-10
  1.2099E-10
  1.2099E-10
  1.2099E-10
  4.5178E-10
  4.5178E-10
  4.5178E-10
  4.5178E-10
  4.5178E-10
  4.5178E-10
  4.5178E-10
  4.5178E-10
  4.5178E-10
  1.6865E-09
  1.6865E-09
  1.6865E-09
  1.6865E-09
  1.6865E-09
  1.6865E-09
  1.6865E-09
  1.6865E-09
  1.6865E-09
  6.2953E-09
  6.2953E-09
  6.2953E-09
  6.2953E-09
  6.2953E-09
  6.2953E-09
  6.2953E-09
  6.2953E-09
  6.2953E-09
  2.3499E-08
  2.3499E-08
  2.3499E-08
  2.3499E-08
  2.3499E-08
  2.3499E-08
  2.3499E-08
  2.3499E-08
  2.3499E-08
  8.7718E-08
  8.7718E-08
  8.7718E-08
  8.7718E-08
  8.7718E-08
  8.7718E-08
  8.7718E-08
  8.7718E-08
  8.7718E-08
  3.2744E-07
  3.2744E-07
  3.2744E-07
  3.2744E-07
  3.2744E-07
  3.2744E-07
  3.2744E-07
  3.2744E-07
  3.2744E-07
  1.2223E-06
  1.2223E-06
  1.2223E-06
  1.2223E-06
  1.2223E-06
  1.2223E-06
  1.2223E-06
  1.2223E-06
  1.2223E-06
  4.5625E-06
  4.5625E-06
  4.5625E-06
  4.5625E-06
  4.5625E-06
  4.5625E-06
  4.5625E-06
  4.5625E-06
  4.5625E-06
  1.7031E-05
  1.7031E-05
  1.7031E-05
  1.7031E-05
  1.7031E-05
  1.7031E-05
  1.7031E-05
  1.7031E-05
  1.7031E-05
  6.3574E-05
  6.3574E-05
  6.3574E-05
  6.3574E-05
  6.3574E-05
  6.3574E-05
  6.3574E-05
  6.3574E-05
  6.3574E-05
  2.3731E-04
  2.3731E-04
  2.3731E-04
  2.3731E-04
  2.3731E-04
  2.3731E-04
  2.3731E-04
  2.3731E-04
  2.3731E-04
  8.8584E-04
  8.8584E-04
  8.8584E-04
  8.8584E-04
  8.8584E-04
  8.8584E-04
  8.8584E-04
  8.8584E-04
  8.8584E-04
  3.3067E-03
  3.3067E-03
  3.3067E-03
  3.3067E-03
  3.3067E-03
  3.3067E-03
  3.3067E-03
  3.3067E-03
  3.3067E-03
  1.2343E-02
  1.2343E-02
  1.2343E-02
  1.2343E-02
  1.2343E-02
  1.2343E-02
  1.2343E-02
  1.2343E-02
  1.2343E-02
  4.6075E-02
  4.6075E-02
  4.6075E-02
  4.6075E-02
  4.6075E-02
  4.6075E-02
  4.6075E-02
  4.6075E-02
  4.6075E-02
  1.7199E-01
  1.7199E-01
  1.7199E-01
  1.7199E-01
  1.7199E-01
  1.7199E-01
  1.7199E-01
  1.7199E-01
  1.7199E-01
  2.7130E-01
  2.7130E-01
  2.7130E-01
  2.7130E-01
  2.7130E-01
  2.7130E-01
  2.7130E-01
  2.7130E-01
  2.7130E-01
   1.2500E-02
  2.7298E-12
  2.7298E-12
  2.7298E-12
  2.7298E-12
  2.7298E-12
  2.7298E-12
  2.7298E-12
  2.7298E-12
  2.7298E-12
  8.1923E-12
  8.1923E-12
  8.1923E-12
  8.1923E-12
  8.1923E-12
  8.1923E-12
  8.1923E-12
  8.1923E-12
  8.1923E-12
  3.2777E-11
  3.2777E-11
  3.2777E-11
  3.2777E-11
  3.2777E-11
  3.2777E-11
  3.2777E-11
  3.2777E-11
  3.2777E-11
  1.2294E-10
  1.2294E-10
  1.2294E-10
  1.2294E-10
  1.2294E-10
  1.2294E-10
  1.2294E-10
  1.2294E-10
  1.2294E-10
  4.5907E-10
  4.5907E-10
  4.5907E-10
  4.5907E-10
  4.5907E-10
  4.5907E-10
  4.5907E-10
  4.5907E-10
  4.5907E-10
  1.7137E-09
  1.7137E-09
  1.7137E-09
  1.7137E-09
  1.7137E-09
  1.7137E-09
  1.7137E-09
  1.7137E-09
  1.7137E-09
  6.3969E-09
  6.3969E-09
  6.3969E-09
  6.3969E-09
  6.3969E-09
  6.3969E-09
  6.3969E-09
  6.3969E-09
  6.3969E-09
  2.3879E-08
  2.3879E-08
  2.3879E-08
  2.3879E-08
  2.3879E-08
  2.3879E-08
  2.3879E-08
  2.3879E-08
  2.3879E-08
  8.9135E-08
  8.9135E-08
  8.9135E-08
  8.9135E-08
  8.9135E-08
  8.9135E-08
  8.9135E-08
  8.9135E-08
  8.9135E-08
  3.3273E-07
  3.3273E-07
  3.3273E-07
  3.3273E-07
  3.3273E-07
  3.3273E-07
  3.3273E-07
  3.3273E-07
  3.3273E-07
  1.2420E-06
  1.2420E-06
  1.2420E-06
  1.2420E-06
  1.2420E-06
  1.2420E-06
  1.2420E-06
  1.2420E-06
  1.2420E-06
  4.6362E-06
  4.6362E-06
  4.6362E-06
  4.6362E-06
  4.6362E-06
  4.6362E-06
  4.6362E-06
  4.6362E-06
  4.6362E-06
  1.7306E-05
  1.7306E-05
  1.7306E-05
  1.7306E-05
  1.7306E-05
  1.7306E-05
  1.7306E-05
  1.7306E-05
  1.7306E-05
  6.4602E-05
  6.4602E-05
  6.4602E-05
  6.4602E-05
  6.4602E-05
  6.4602E-05
  6.4602E-05
  6.4602E-05
  6.4602E-05
  2.4115E-04
  2.4115E-04
  2.4115E-04
  2.4115E-04
  2.4115E-04
  2.4115E-04
  2.4115E-04
  2.4115E-04
  2.4115E-04
  9.0017E-04
  9.0017E-04
  9.0017E-04
  9.0017E-04
  9.0017E-04
  9.0017E-04
  9.0017E-04
  9.0017E-04
  9.0017E-04
  3.3602E-03
  3.3602E-03
  3.3602E-03
  3.3602E-03
  3.3602E-03
  3.3602E-03
  3.3602E-03
  3.3602E-03
  3.3602E-03
  1.2543E-02
  1.2543E-02
  1.2543E-02
  1.2543E-02
  1.2543E-02
  1.2543E-02
  1.2543E-02
  1.2543E-02
  1.2543E-02
  4.6821E-02
  4.6821E-02
  4.6821E-02
  4.6821E-02
  4.6821E-02
  4.6821E-02
  4.6821E-02
  4.6821E-02
  4.6821E-02
  1.7477E-01
  1.7477E-01
  1.7477E-01
  1.7477E-01
  1.7477E-01
  1.7477E-01
  1.7477E-01
  1.7477E-01
  1.7477E-01
  2.7569E-01
  2.7569E-01
  2.7569E-01
  2.7569E-01
  2.7569E-01
  2.7569E-01
  2.7569E-01
  2.7569E-01
  2.7569E-01
   1.2600E-02
  2.7735E-12
  2.7735E-12
  2.7735E-12
  2.7735E-12
  2.7735E-12
  2.7735E-12
  2.7735E-12
  2.7735E-12
  2.7735E-12
  8.3233E-12
  8.3233E-12
  8.3233E-12
  8.3233E-12
  8.3233E-12
  8.3233E-12
  8.3233E-12
  8.3233E-12
  8.3233E-12
  3.3302E-11
  3.3302E-11
  3.3302E-11
  3.3302E-11
  3.3302E-11
  3.3302E-11
  3.3302E-11
  3.3302E-11
  3.3302E-11
  1.2491E-10
  1.2491E-10
  1.2491E-10
  1.2491E-10
  1.2491E-10
  1.2491E-10
  1.2491E-10
  1.2491E-10
  1.2491E-10
  4.6642E-10
  4.6642E-10
  4.6642E-10
  4.6642E-10
  4.6642E-10
  4.6642E-10
  4.6642E-10
  4.6642E-10
  4.6642E-10
  1.7411E-09
  1.7411E-09
  1.7411E-09
  1.7411E-09
  1.7411E-09
  1.7411E-09
  1.7411E-09
  1.7411E-09
  1.7411E-09
  6.4994E-09
  6.4994E-09
  6.4994E-09
  6.4994E-09
  6.4994E-09
  6.4994E-09
  6.4994E-09
  6.4994E-09
  6.4994E-09
  2.4261E-08
  2.4261E-08
  2.4261E-08
  2.4261E-08
  2.4261E-08
  2.4261E-08
  2.4261E-08
  2.4261E-08
  2.4261E-08
  9.0563E-08
  9.0563E-08
  9.0563E-08
  9.0563E-08
  9.0563E-08
  9.0563E-08
  9.0563E-08
  9.0563E-08
  9.0563E-08
  3.3806E-07
  3.3806E-07
  3.3806E-07
  3.3806E-07
  3.3806E-07
  3.3806E-07
  3.3806E-07
  3.3806E-07
  3.3806E-07
  1.2619E-06
  1.2619E-06
  1.2619E-06
  1.2619E-06
  1.2619E-06
  1.2619E-06
  1.2619E-06
  1.2619E-06
  1.2619E-06
  4.7106E-06
  4.7106E-06
  4.7106E-06
  4.7106E-06
  4.7106E-06
  4.7106E-06
  4.7106E-06
  4.7106E-06
  4.7106E-06
  1.7584E-05
  1.7584E-05
  1.7584E-05
  1.7584E-05
  1.7584E-05
  1.7584E-05
  1.7584E-05
  1.7584E-05
  1.7584E-05
  6.5638E-05
  6.5638E-05
  6.5638E-05
  6.5638E-05
  6.5638E-05
  6.5638E-05
  6.5638E-05
  6.5638E-05
  6.5638E-05
  2.4502E-04
  2.4502E-04
  2.4502E-04
  2.4502E-04
  2.4502E-04
  2.4502E-04
  2.4502E-04
  2.4502E-04
  2.4502E-04
  9.1461E-04
  9.1461E-04
  9.1461E-04
  9.1461E-04
  9.1461E-04
  9.1461E-04
  9.1461E-04
  9.1461E-04
  9.1461E-04
  3.4141E-03
  3.4141E-03
  3.4141E-03
  3.4141E-03
  3.4141E-03
  3.4141E-03
  3.4141E-03
  3.4141E-03
  3.4141E-03
  1.2744E-02
  1.2744E-02
  1.2744E-02
  1.2744E-02
  1.2744E-02
  1.2744E-02
  1.2744E-02
  1.2744E-02
  1.2744E-02
  4.7573E-02
  4.7573E-02
  4.7573E-02
  4.7573E-02
  4.7573E-02
  4.7573E-02
  4.7573E-02
  4.7573E-02
  4.7573E-02
  1.7758E-01
  1.7758E-01
  1.7758E-01
  1.7758E-01
  1.7758E-01
  1.7758E-01
  1.7758E-01
  1.7758E-01
  1.7758E-01
  2.8012E-01
  2.8012E-01
  2.8012E-01
  2.8012E-01
  2.8012E-01
  2.8012E-01
  2.8012E-01
  2.8012E-01
  2.8012E-01
   1.2700E-02
  2.8175E-12
  2.8175E-12
  2.8175E-12
  2.8175E-12
  2.8175E-12
  2.8175E-12
  2.8175E-12
  2.8175E-12
  2.8175E-12
  8.4554E-12
  8.4554E-12
  8.4554E-12
  8.4554E-12
  8.4554E-12
  8.4554E-12
  8.4554E-12
  8.4554E-12
  8.4554E-12
  3.3830E-11
  3.3830E-11
  3.3830E-11
  3.3830E-11
  3.3830E-11
  3.3830E-11
  3.3830E-11
  3.3830E-11
  3.3830E-11
  1.2689E-10
  1.2689E-10
  1.2689E-10
  1.2689E-10
  1.2689E-10
  1.2689E-10
  1.2689E-10
  1.2689E-10
  1.2689E-10
  4.7383E-10
  4.7383E-10
  4.7383E-10
  4.7383E-10
  4.7383E-10
  4.7383E-10
  4.7383E-10
  4.7383E-10
  4.7383E-10
  1.7688E-09
  1.7688E-09
  1.7688E-09
  1.7688E-09
  1.7688E-09
  1.7688E-09
  1.7688E-09
  1.7688E-09
  1.7688E-09
  6.6026E-09
  6.6026E-09
  6.6026E-09
  6.6026E-09
  6.6026E-09
  6.6026E-09
  6.6026E-09
  6.6026E-09
  6.6026E-09
  2.4647E-08
  2.4647E-08
  2.4647E-08
  2.4647E-08
  2.4647E-08
  2.4647E-08
  2.4647E-08
  2.4647E-08
  2.4647E-08
  9.2003E-08
  9.2003E-08
  9.2003E-08
  9.2003E-08
  9.2003E-08
  9.2003E-08
  9.2003E-08
  9.2003E-08
  9.2003E-08
  3.4343E-07
  3.4343E-07
  3.4343E-07
  3.4343E-07
  3.4343E-07
  3.4343E-07
  3.4343E-07
  3.4343E-07
  3.4343E-07
  1.2820E-06
  1.2820E-06
  1.2820E-06
  1.2820E-06
  1.2820E-06
  1.2820E-06
  1.2820E-06
  1.2820E-06
  1.2820E-06
  4.7855E-06
  4.7855E-06
  4.7855E-06
  4.7855E-06
  4.7855E-06
  4.7855E-06
  4.7855E-06
  4.7855E-06
  4.7855E-06
  1.7864E-05
  1.7864E-05
  1.7864E-05
  1.7864E-05
  1.7864E-05
  1.7864E-05
  1.7864E-05
  1.7864E-05
  1.7864E-05
  6.6682E-05
  6.6682E-05
  6.6682E-05
  6.6682E-05
  6.6682E-05
  6.6682E-05
  6.6682E-05
  6.6682E-05
  6.6682E-05
  2.4892E-04
  2.4892E-04
  2.4892E-04
  2.4892E-04
  2.4892E-04
  2.4892E-04
  2.4892E-04
  2.4892E-04
  2.4892E-04
  9.2917E-04
  9.2917E-04
  9.2917E-04
  9.2917E-04
  9.2917E-04
  9.2917E-04
  9.2917E-04
  9.2917E-04
  9.2917E-04
  3.4685E-03
  3.4685E-03
  3.4685E-03
  3.4685E-03
  3.4685E-03
  3.4685E-03
  3.4685E-03
  3.4685E-03
  3.4685E-03
  1.2947E-02
  1.2947E-02
  1.2947E-02
  1.2947E-02
  1.2947E-02
  1.2947E-02
  1.2947E-02
  1.2947E-02
  1.2947E-02
  4.8331E-02
  4.8331E-02
  4.8331E-02
  4.8331E-02
  4.8331E-02
  4.8331E-02
  4.8331E-02
  4.8331E-02
  4.8331E-02
  1.8041E-01
  1.8041E-01
  1.8041E-01
  1.8041E-01
  1.8041E-01
  1.8041E-01
  1.8041E-01
  1.8041E-01
  1.8041E-01
  2.8459E-01
  2.8459E-01
  2.8459E-01
  2.8459E-01
  2.8459E-01
  2.8459E-01
  2.8459E-01
  2.8459E-01
  2.8459E-01
   1.2800E-02
  2.8618E-12
  2.8618E-12
  2.8618E-12
  2.8618E-12
  2.8618E-12
  2.8618E-12
  2.8618E-12
  2.8618E-12
  2.8618E-12
  8.5886E-12
  8.5886E-12
  8.5886E-12
  8.5886E-12
  8.5886E-12
  8.5886E-12
  8.5886E-12
  8.5886E-12
  8.5886E-12
  3.4363E-11
  3.4363E-11
  3.4363E-11
  3.4363E-11
  3.4363E-11
  3.4363E-11
  3.4363E-11
  3.4363E-11
  3.4363E-11
  1.2889E-10
  1.2889E-10
  1.2889E-10
  1.2889E-10
  1.2889E-10
  1.2889E-10
  1.2889E-10
  1.2889E-10
  1.2889E-10
  4.8129E-10
  4.8129E-10
  4.8129E-10
  4.8129E-10
  4.8129E-10
  4.8129E-10
  4.8129E-10
  4.8129E-10
  4.8129E-10
  1.7967E-09
  1.7967E-09
  1.7967E-09
  1.7967E-09
  1.7967E-09
  1.7967E-09
  1.7967E-09
  1.7967E-09
  1.7967E-09
  6.7067E-09
  6.7067E-09
  6.7067E-09
  6.7067E-09
  6.7067E-09
  6.7067E-09
  6.7067E-09
  6.7067E-09
  6.7067E-09
  2.5035E-08
  2.5035E-08
  2.5035E-08
  2.5035E-08
  2.5035E-08
  2.5035E-08
  2.5035E-08
  2.5035E-08
  2.5035E-08
  9.3454E-08
  9.3454E-08
  9.3454E-08
  9.3454E-08
  9.3454E-08
  9.3454E-08
  9.3454E-08
  9.3454E-08
  9.3454E-08
  3.4885E-07
  3.4885E-07
  3.4885E-07
  3.4885E-07
  3.4885E-07
  3.4885E-07
  3.4885E-07
  3.4885E-07
  3.4885E-07
  1.3022E-06
  1.3022E-06
  1.3022E-06
  1.3022E-06
  1.3022E-06
  1.3022E-06
  1.3022E-06
  1.3022E-06
  1.3022E-06
  4.8610E-06
  4.8610E-06
  4.8610E-06
  4.8610E-06
  4.8610E-06
  4.8610E-06
  4.8610E-06
  4.8610E-06
  4.8610E-06
  1.8146E-05
  1.8146E-05
  1.8146E-05
  1.8146E-05
  1.8146E-05
  1.8146E-05
  1.8146E-05
  1.8146E-05
  1.8146E-05
  6.7735E-05
  6.7735E-05
  6.7735E-05
  6.7735E-05
  6.7735E-05
  6.7735E-05
  6.7735E-05
  6.7735E-05
  6.7735E-05
  2.5285E-04
  2.5285E-04
  2.5285E-04
  2.5285E-04
  2.5285E-04
  2.5285E-04
  2.5285E-04
  2.5285E-04
  2.5285E-04
  9.4385E-04
  9.4385E-04
  9.4385E-04
  9.4385E-04
  9.4385E-04
  9.4385E-04
  9.4385E-04
  9.4385E-04
  9.4385E-04
  3.5233E-03
  3.5233E-03
  3.5233E-03
  3.5233E-03
  3.5233E-03
  3.5233E-03
  3.5233E-03
  3.5233E-03
  3.5233E-03
  1.3152E-02
  1.3152E-02
  1.3152E-02
  1.3152E-02
  1.3152E-02
  1.3152E-02
  1.3152E-02
  1.3152E-02
  1.3152E-02
  4.9094E-02
  4.9094E-02
  4.9094E-02
  4.9094E-02
  4.9094E-02
  4.9094E-02
  4.9094E-02
  4.9094E-02
  4.9094E-02
  1.8326E-01
  1.8326E-01
  1.8326E-01
  1.8326E-01
  1.8326E-01
  1.8326E-01
  1.8326E-01
  1.8326E-01
  1.8326E-01
  2.8908E-01
  2.8908E-01
  2.8908E-01
  2.8908E-01
  2.8908E-01
  2.8908E-01
  2.8908E-01
  2.8908E-01
  2.8908E-01
   1.2900E-02
  2.9065E-12
  2.9065E-12
  2.9065E-12
  2.9065E-12
  2.9065E-12
  2.9065E-12
  2.9065E-12
  2.9065E-12
  2.9065E-12
  8.7227E-12
  8.7227E-12
  8.7227E-12
  8.7227E-12
  8.7227E-12
  8.7227E-12
  8.7227E-12
  8.7227E-12
  8.7227E-12
  3.4900E-11
  3.4900E-11
  3.4900E-11
  3.4900E-11
  3.4900E-11
  3.4900E-11
  3.4900E-11
  3.4900E-11
  3.4900E-11
  1.3090E-10
  1.3090E-10
  1.3090E-10
  1.3090E-10
  1.3090E-10
  1.3090E-10
  1.3090E-10
  1.3090E-10
  1.3090E-10
  4.8882E-10
  4.8882E-10
  4.8882E-10
  4.8882E-10
  4.8882E-10
  4.8882E-10
  4.8882E-10
  4.8882E-10
  4.8882E-10
  1.8247E-09
  1.8247E-09
  1.8247E-09
  1.8247E-09
  1.8247E-09
  1.8247E-09
  1.8247E-09
  1.8247E-09
  1.8247E-09
  6.8116E-09
  6.8116E-09
  6.8116E-09
  6.8116E-09
  6.8116E-09
  6.8116E-09
  6.8116E-09
  6.8116E-09
  6.8116E-09
  2.5427E-08
  2.5427E-08
  2.5427E-08
  2.5427E-08
  2.5427E-08
  2.5427E-08
  2.5427E-08
  2.5427E-08
  2.5427E-08
  9.4916E-08
  9.4916E-08
  9.4916E-08
  9.4916E-08
  9.4916E-08
  9.4916E-08
  9.4916E-08
  9.4916E-08
  9.4916E-08
  3.5431E-07
  3.5431E-07
  3.5431E-07
  3.5431E-07
  3.5431E-07
  3.5431E-07
  3.5431E-07
  3.5431E-07
  3.5431E-07
  1.3226E-06
  1.3226E-06
  1.3226E-06
  1.3226E-06
  1.3226E-06
  1.3226E-06
  1.3226E-06
  1.3226E-06
  1.3226E-06
  4.9371E-06
  4.9371E-06
  4.9371E-06
  4.9371E-06
  4.9371E-06
  4.9371E-06
  4.9371E-06
  4.9371E-06
  4.9371E-06
  1.8430E-05
  1.8430E-05
  1.8430E-05
  1.8430E-05
  1.8430E-05
  1.8430E-05
  1.8430E-05
  1.8430E-05
  1.8430E-05
  6.8796E-05
  6.8796E-05
  6.8796E-05
  6.8796E-05
  6.8796E-05
  6.8796E-05
  6.8796E-05
  6.8796E-05
  6.8796E-05
  2.5681E-04
  2.5681E-04
  2.5681E-04
  2.5681E-04
  2.5681E-04
  2.5681E-04
  2.5681E-04
  2.5681E-04
  2.5681E-04
  9.5864E-04
  9.5864E-04
  9.5864E-04
  9.5864E-04
  9.5864E-04
  9.5864E-04
  9.5864E-04
  9.5864E-04
  9.5864E-04
  3.5785E-03
  3.5785E-03
  3.5785E-03
  3.5785E-03
  3.5785E-03
  3.5785E-03
  3.5785E-03
  3.5785E-03
  3.5785E-03
  1.3358E-02
  1.3358E-02
  1.3358E-02
  1.3358E-02
  1.3358E-02
  1.3358E-02
  1.3358E-02
  1.3358E-02
  1.3358E-02
  4.9864E-02
  4.9864E-02
  4.9864E-02
  4.9864E-02
  4.9864E-02
  4.9864E-02
  4.9864E-02
  4.9864E-02
  4.9864E-02
  1.8614E-01
  1.8614E-01
  1.8614E-01
  1.8614E-01
  1.8614E-01
  1.8614E-01
  1.8614E-01
  1.8614E-01
  1.8614E-01
  2.9362E-01
  2.9362E-01
  2.9362E-01
  2.9362E-01
  2.9362E-01
  2.9362E-01
  2.9362E-01
  2.9362E-01
  2.9362E-01
   1.3000E-02
  2.9515E-12
  2.9515E-12
  2.9515E-12
  2.9515E-12
  2.9515E-12
  2.9515E-12
  2.9515E-12
  2.9515E-12
  2.9515E-12
  8.8579E-12
  8.8579E-12
  8.8579E-12
  8.8579E-12
  8.8579E-12
  8.8579E-12
  8.8579E-12
  8.8579E-12
  8.8579E-12
  3.5441E-11
  3.5441E-11
  3.5441E-11
  3.5441E-11
  3.5441E-11
  3.5441E-11
  3.5441E-11
  3.5441E-11
  3.5441E-11
  1.3293E-10
  1.3293E-10
  1.3293E-10
  1.3293E-10
  1.3293E-10
  1.3293E-10
  1.3293E-10
  1.3293E-10
  1.3293E-10
  4.9640E-10
  4.9640E-10
  4.9640E-10
  4.9640E-10
  4.9640E-10
  4.9640E-10
  4.9640E-10
  4.9640E-10
  4.9640E-10
  1.8530E-09
  1.8530E-09
  1.8530E-09
  1.8530E-09
  1.8530E-09
  1.8530E-09
  1.8530E-09
  1.8530E-09
  1.8530E-09
  6.9173E-09
  6.9173E-09
  6.9173E-09
  6.9173E-09
  6.9173E-09
  6.9173E-09
  6.9173E-09
  6.9173E-09
  6.9173E-09
  2.5821E-08
  2.5821E-08
  2.5821E-08
  2.5821E-08
  2.5821E-08
  2.5821E-08
  2.5821E-08
  2.5821E-08
  2.5821E-08
  9.6389E-08
  9.6389E-08
  9.6389E-08
  9.6389E-08
  9.6389E-08
  9.6389E-08
  9.6389E-08
  9.6389E-08
  9.6389E-08
  3.5981E-07
  3.5981E-07
  3.5981E-07
  3.5981E-07
  3.5981E-07
  3.5981E-07
  3.5981E-07
  3.5981E-07
  3.5981E-07
  1.3431E-06
  1.3431E-06
  1.3431E-06
  1.3431E-06
  1.3431E-06
  1.3431E-06
  1.3431E-06
  1.3431E-06
  1.3431E-06
  5.0138E-06
  5.0138E-06
  5.0138E-06
  5.0138E-06
  5.0138E-06
  5.0138E-06
  5.0138E-06
  5.0138E-06
  5.0138E-06
  1.8716E-05
  1.8716E-05
  1.8716E-05
  1.8716E-05
  1.8716E-05
  1.8716E-05
  1.8716E-05
  1.8716E-05
  1.8716E-05
  6.9865E-05
  6.9865E-05
  6.9865E-05
  6.9865E-05
  6.9865E-05
  6.9865E-05
  6.9865E-05
  6.9865E-05
  6.9865E-05
  2.6080E-04
  2.6080E-04
  2.6080E-04
  2.6080E-04
  2.6080E-04
  2.6080E-04
  2.6080E-04
  2.6080E-04
  2.6080E-04
  9.7354E-04
  9.7354E-04
  9.7354E-04
  9.7354E-04
  9.7354E-04
  9.7354E-04
  9.7354E-04
  9.7354E-04
  9.7354E-04
  3.6341E-03
  3.6341E-03
  3.6341E-03
  3.6341E-03
  3.6341E-03
  3.6341E-03
  3.6341E-03
  3.6341E-03
  3.6341E-03
  1.3566E-02
  1.3566E-02
  1.3566E-02
  1.3566E-02
  1.3566E-02
  1.3566E-02
  1.3566E-02
  1.3566E-02
  1.3566E-02
  5.0640E-02
  5.0640E-02
  5.0640E-02
  5.0640E-02
  5.0640E-02
  5.0640E-02
  5.0640E-02
  5.0640E-02
  5.0640E-02
  1.8903E-01
  1.8903E-01
  1.8903E-01
  1.8903E-01
  1.8903E-01
  1.8903E-01
  1.8903E-01
  1.8903E-01
  1.8903E-01
  2.9819E-01
  2.9819E-01
  2.9819E-01
  2.9819E-01
  2.9819E-01
  2.9819E-01
  2.9819E-01
  2.9819E-01
  2.9819E-01
   1.3100E-02
  2.9969E-12
  2.9969E-12
  2.9969E-12
  2.9969E-12
  2.9969E-12
  2.9969E-12
  2.9969E-12
  2.9969E-12
  2.9969E-12
  8.9941E-12
  8.9941E-12
  8.9941E-12
  8.9941E-12
  8.9941E-12
  8.9941E-12
  8.9941E-12
  8.9941E-12
  8.9941E-12
  3.5986E-11
  3.5986E-11
  3.5986E-11
  3.5986E-11
  3.5986E-11
  3.5986E-11
  3.5986E-11
  3.5986E-11
  3.5986E-11
  1.3498E-10
  1.3498E-10
  1.3498E-10
  1.3498E-10
  1.3498E-10
  1.3498E-10
  1.3498E-10
  1.3498E-10
  1.3498E-10
  5.0403E-10
  5.0403E-10
  5.0403E-10
  5.0403E-10
  5.0403E-10
  5.0403E-10
  5.0403E-10
  5.0403E-10
  5.0403E-10
  1.8816E-09
  1.8816E-09
  1.8816E-09
  1.8816E-09
  1.8816E-09
  1.8816E-09
  1.8816E-09
  1.8816E-09
  1.8816E-09
  7.0237E-09
  7.0237E-09
  7.0237E-09
  7.0237E-09
  7.0237E-09
  7.0237E-09
  7.0237E-09
  7.0237E-09
  7.0237E-09
  2.6219E-08
  2.6219E-08
  2.6219E-08
  2.6219E-08
  2.6219E-08
  2.6219E-08
  2.6219E-08
  2.6219E-08
  2.6219E-08
  9.7873E-08
  9.7873E-08
  9.7873E-08
  9.7873E-08
  9.7873E-08
  9.7873E-08
  9.7873E-08
  9.7873E-08
  9.7873E-08
  3.6535E-07
  3.6535E-07
  3.6535E-07
  3.6535E-07
  3.6535E-07
  3.6535E-07
  3.6535E-07
  3.6535E-07
  3.6535E-07
  1.3638E-06
  1.3638E-06
  1.3638E-06
  1.3638E-06
  1.3638E-06
  1.3638E-06
  1.3638E-06
  1.3638E-06
  1.3638E-06
  5.0911E-06
  5.0911E-06
  5.0911E-06
  5.0911E-06
  5.0911E-06
  5.0911E-06
  5.0911E-06
  5.0911E-06
  5.0911E-06
  1.9005E-05
  1.9005E-05
  1.9005E-05
  1.9005E-05
  1.9005E-05
  1.9005E-05
  1.9005E-05
  1.9005E-05
  1.9005E-05
  7.0942E-05
  7.0942E-05
  7.0942E-05
  7.0942E-05
  7.0942E-05
  7.0942E-05
  7.0942E-05
  7.0942E-05
  7.0942E-05
  2.6482E-04
  2.6482E-04
  2.6482E-04
  2.6482E-04
  2.6482E-04
  2.6482E-04
  2.6482E-04
  2.6482E-04
  2.6482E-04
  9.8856E-04
  9.8856E-04
  9.8856E-04
  9.8856E-04
  9.8856E-04
  9.8856E-04
  9.8856E-04
  9.8856E-04
  9.8856E-04
  3.6902E-03
  3.6902E-03
  3.6902E-03
  3.6902E-03
  3.6902E-03
  3.6902E-03
  3.6902E-03
  3.6902E-03
  3.6902E-03
  1.3775E-02
  1.3775E-02
  1.3775E-02
  1.3775E-02
  1.3775E-02
  1.3775E-02
  1.3775E-02
  1.3775E-02
  1.3775E-02
  5.1422E-02
  5.1422E-02
  5.1422E-02
  5.1422E-02
  5.1422E-02
  5.1422E-02
  5.1422E-02
  5.1422E-02
  5.1422E-02
  1.9195E-01
  1.9195E-01
  1.9195E-01
  1.9195E-01
  1.9195E-01
  1.9195E-01
  1.9195E-01
  1.9195E-01
  1.9195E-01
  3.0279E-01
  3.0279E-01
  3.0279E-01
  3.0279E-01
  3.0279E-01
  3.0279E-01
  3.0279E-01
  3.0279E-01
  3.0279E-01
   1.3200E-02
  3.0426E-12
  3.0426E-12
  3.0426E-12
  3.0426E-12
  3.0426E-12
  3.0426E-12
  3.0426E-12
  3.0426E-12
  3.0426E-12
  9.1313E-12
  9.1313E-12
  9.1313E-12
  9.1313E-12
  9.1313E-12
  9.1313E-12
  9.1313E-12
  9.1313E-12
  9.1313E-12
  3.6535E-11
  3.6535E-11
  3.6535E-11
  3.6535E-11
  3.6535E-11
  3.6535E-11
  3.6535E-11
  3.6535E-11
  3.6535E-11
  1.3704E-10
  1.3704E-10
  1.3704E-10
  1.3704E-10
  1.3704E-10
  1.3704E-10
  1.3704E-10
  1.3704E-10
  1.3704E-10
  5.1173E-10
  5.1173E-10
  5.1173E-10
  5.1173E-10
  5.1173E-10
  5.1173E-10
  5.1173E-10
  5.1173E-10
  5.1173E-10
  1.9103E-09
  1.9103E-09
  1.9103E-09
  1.9103E-09
  1.9103E-09
  1.9103E-09
  1.9103E-09
  1.9103E-09
  1.9103E-09
  7.1310E-09
  7.1310E-09
  7.1310E-09
  7.1310E-09
  7.1310E-09
  7.1310E-09
  7.1310E-09
  7.1310E-09
  7.1310E-09
  2.6620E-08
  2.6620E-08
  2.6620E-08
  2.6620E-08
  2.6620E-08
  2.6620E-08
  2.6620E-08
  2.6620E-08
  2.6620E-08
  9.9369E-08
  9.9369E-08
  9.9369E-08
  9.9369E-08
  9.9369E-08
  9.9369E-08
  9.9369E-08
  9.9369E-08
  9.9369E-08
  3.7094E-07
  3.7094E-07
  3.7094E-07
  3.7094E-07
  3.7094E-07
  3.7094E-07
  3.7094E-07
  3.7094E-07
  3.7094E-07
  1.3847E-06
  1.3847E-06
  1.3847E-06
  1.3847E-06
  1.3847E-06
  1.3847E-06
  1.3847E-06
  1.3847E-06
  1.3847E-06
  5.1689E-06
  5.1689E-06
  5.1689E-06
  5.1689E-06
  5.1689E-06
  5.1689E-06
  5.1689E-06
  5.1689E-06
  5.1689E-06
  1.9295E-05
  1.9295E-05
  1.9295E-05
  1.9295E-05
  1.9295E-05
  1.9295E-05
  1.9295E-05
  1.9295E-05
  1.9295E-05
  7.2028E-05
  7.2028E-05
  7.2028E-05
  7.2028E-05
  7.2028E-05
  7.2028E-05
  7.2028E-05
  7.2028E-05
  7.2028E-05
  2.6887E-04
  2.6887E-04
  2.6887E-04
  2.6887E-04
  2.6887E-04
  2.6887E-04
  2.6887E-04
  2.6887E-04
  2.6887E-04
  1.0037E-03
  1.0037E-03
  1.0037E-03
  1.0037E-03
  1.0037E-03
  1.0037E-03
  1.0037E-03
  1.0037E-03
  1.0037E-03
  3.7467E-03
  3.7467E-03
  3.7467E-03
  3.7467E-03
  3.7467E-03
  3.7467E-03
  3.7467E-03
  3.7467E-03
  3.7467E-03
  1.3986E-02
  1.3986E-02
  1.3986E-02
  1.3986E-02
  1.3986E-02
  1.3986E-02
  1.3986E-02
  1.3986E-02
  1.3986E-02
  5.2209E-02
  5.2209E-02
  5.2209E-02
  5.2209E-02
  5.2209E-02
  5.2209E-02
  5.2209E-02
  5.2209E-02
  5.2209E-02
  1.9489E-01
  1.9489E-01
  1.9489E-01
  1.9489E-01
  1.9489E-01
  1.9489E-01
  1.9489E-01
  1.9489E-01
  1.9489E-01
  3.0743E-01
  3.0743E-01
  3.0743E-01
  3.0743E-01
  3.0743E-01
  3.0743E-01
  3.0743E-01
  3.0743E-01
  3.0743E-01
   1.3300E-02
  3.0886E-12
  3.0886E-12
  3.0886E-12
  3.0886E-12
  3.0886E-12
  3.0886E-12
  3.0886E-12
  3.0886E-12
  3.0886E-12
  9.2695E-12
  9.2695E-12
  9.2695E-12
  9.2695E-12
  9.2695E-12
  9.2695E-12
  9.2695E-12
  9.2695E-12
  9.2695E-12
  3.7088E-11
  3.7088E-11
  3.7088E-11
  3.7088E-11
  3.7088E-11
  3.7088E-11
  3.7088E-11
  3.7088E-11
  3.7088E-11
  1.3911E-10
  1.3911E-10
  1.3911E-10
  1.3911E-10
  1.3911E-10
  1.3911E-10
  1.3911E-10
  1.3911E-10
  1.3911E-10
  5.1948E-10
  5.1948E-10
  5.1948E-10
  5.1948E-10
  5.1948E-10
  5.1948E-10
  5.1948E-10
  5.1948E-10
  5.1948E-10
  1.9393E-09
  1.9393E-09
  1.9393E-09
  1.9393E-09
  1.9393E-09
  1.9393E-09
  1.9393E-09
  1.9393E-09
  1.9393E-09
  7.2391E-09
  7.2391E-09
  7.2391E-09
  7.2391E-09
  7.2391E-09
  7.2391E-09
  7.2391E-09
  7.2391E-09
  7.2391E-09
  2.7023E-08
  2.7023E-08
  2.7023E-08
  2.7023E-08
  2.7023E-08
  2.7023E-08
  2.7023E-08
  2.7023E-08
  2.7023E-08
  1.0088E-07
  1.0088E-07
  1.0088E-07
  1.0088E-07
  1.0088E-07
  1.0088E-07
  1.0088E-07
  1.0088E-07
  1.0088E-07
  3.7657E-07
  3.7657E-07
  3.7657E-07
  3.7657E-07
  3.7657E-07
  3.7657E-07
  3.7657E-07
  3.7657E-07
  3.7657E-07
  1.4057E-06
  1.4057E-06
  1.4057E-06
  1.4057E-06
  1.4057E-06
  1.4057E-06
  1.4057E-06
  1.4057E-06
  1.4057E-06
  5.2474E-06
  5.2474E-06
  5.2474E-06
  5.2474E-06
  5.2474E-06
  5.2474E-06
  5.2474E-06
  5.2474E-06
  5.2474E-06
  1.9588E-05
  1.9588E-05
  1.9588E-05
  1.9588E-05
  1.9588E-05
  1.9588E-05
  1.9588E-05
  1.9588E-05
  1.9588E-05
  7.3121E-05
  7.3121E-05
  7.3121E-05
  7.3121E-05
  7.3121E-05
  7.3121E-05
  7.3121E-05
  7.3121E-05
  7.3121E-05
  2.7296E-04
  2.7296E-04
  2.7296E-04
  2.7296E-04
  2.7296E-04
  2.7296E-04
  2.7296E-04
  2.7296E-04
  2.7296E-04
  1.0189E-03
  1.0189E-03
  1.0189E-03
  1.0189E-03
  1.0189E-03
  1.0189E-03
  1.0189E-03
  1.0189E-03
  1.0189E-03
  3.8036E-03
  3.8036E-03
  3.8036E-03
  3.8036E-03
  3.8036E-03
  3.8036E-03
  3.8036E-03
  3.8036E-03
  3.8036E-03
  1.4199E-02
  1.4199E-02
  1.4199E-02
  1.4199E-02
  1.4199E-02
  1.4199E-02
  1.4199E-02
  1.4199E-02
  1.4199E-02
  5.3003E-02
  5.3003E-02
  5.3003E-02
  5.3003E-02
  5.3003E-02
  5.3003E-02
  5.3003E-02
  5.3003E-02
  5.3003E-02
  1.9786E-01
  1.9786E-01
  1.9786E-01
  1.9786E-01
  1.9786E-01
  1.9786E-01
  1.9786E-01
  1.9786E-01
  1.9786E-01
  3.1211E-01
  3.1211E-01
  3.1211E-01
  3.1211E-01
  3.1211E-01
  3.1211E-01
  3.1211E-01
  3.1211E-01
  3.1211E-01
   1.3400E-02
  3.1350E-12
  3.1350E-12
  3.1350E-12
  3.1350E-12
  3.1350E-12
  3.1350E-12
  3.1350E-12
  3.1350E-12
  3.1350E-12
  9.4088E-12
  9.4088E-12
  9.4088E-12
  9.4088E-12
  9.4088E-12
  9.4088E-12
  9.4088E-12
  9.4088E-12
  9.4088E-12
  3.7646E-11
  3.7646E-11
  3.7646E-11
  3.7646E-11
  3.7646E-11
  3.7646E-11
  3.7646E-11
  3.7646E-11
  3.7646E-11
  1.4121E-10
  1.4121E-10
  1.4121E-10
  1.4121E-10
  1.4121E-10
  1.4121E-10
  1.4121E-10
  1.4121E-10
  1.4121E-10
  5.2729E-10
  5.2729E-10
  5.2729E-10
  5.2729E-10
  5.2729E-10
  5.2729E-10
  5.2729E-10
  5.2729E-10
  5.2729E-10
  1.9684E-09
  1.9684E-09
  1.9684E-09
  1.9684E-09
  1.9684E-09
  1.9684E-09
  1.9684E-09
  1.9684E-09
  1.9684E-09
  7.3480E-09
  7.3480E-09
  7.3480E-09
  7.3480E-09
  7.3480E-09
  7.3480E-09
  7.3480E-09
  7.3480E-09
  7.3480E-09
  2.7430E-08
  2.7430E-08
  2.7430E-08
  2.7430E-08
  2.7430E-08
  2.7430E-08
  2.7430E-08
  2.7430E-08
  2.7430E-08
  1.0239E-07
  1.0239E-07
  1.0239E-07
  1.0239E-07
  1.0239E-07
  1.0239E-07
  1.0239E-07
  1.0239E-07
  1.0239E-07
  3.8223E-07
  3.8223E-07
  3.8223E-07
  3.8223E-07
  3.8223E-07
  3.8223E-07
  3.8223E-07
  3.8223E-07
  3.8223E-07
  1.4269E-06
  1.4269E-06
  1.4269E-06
  1.4269E-06
  1.4269E-06
  1.4269E-06
  1.4269E-06
  1.4269E-06
  1.4269E-06
  5.3264E-06
  5.3264E-06
  5.3264E-06
  5.3264E-06
  5.3264E-06
  5.3264E-06
  5.3264E-06
  5.3264E-06
  5.3264E-06
  1.9883E-05
  1.9883E-05
  1.9883E-05
  1.9883E-05
  1.9883E-05
  1.9883E-05
  1.9883E-05
  1.9883E-05
  1.9883E-05
  7.4223E-05
  7.4223E-05
  7.4223E-05
  7.4223E-05
  7.4223E-05
  7.4223E-05
  7.4223E-05
  7.4223E-05
  7.4223E-05
  2.7707E-04
  2.7707E-04
  2.7707E-04
  2.7707E-04
  2.7707E-04
  2.7707E-04
  2.7707E-04
  2.7707E-04
  2.7707E-04
  1.0343E-03
  1.0343E-03
  1.0343E-03
  1.0343E-03
  1.0343E-03
  1.0343E-03
  1.0343E-03
  1.0343E-03
  1.0343E-03
  3.8610E-03
  3.8610E-03
  3.8610E-03
  3.8610E-03
  3.8610E-03
  3.8610E-03
  3.8610E-03
  3.8610E-03
  3.8610E-03
  1.4413E-02
  1.4413E-02
  1.4413E-02
  1.4413E-02
  1.4413E-02
  1.4413E-02
  1.4413E-02
  1.4413E-02
  1.4413E-02
  5.3803E-02
  5.3803E-02
  5.3803E-02
  5.3803E-02
  5.3803E-02
  5.3803E-02
  5.3803E-02
  5.3803E-02
  5.3803E-02
  2.0084E-01
  2.0084E-01
  2.0084E-01
  2.0084E-01
  2.0084E-01
  2.0084E-01
  2.0084E-01
  2.0084E-01
  2.0084E-01
  3.1682E-01
  3.1682E-01
  3.1682E-01
  3.1682E-01
  3.1682E-01
  3.1682E-01
  3.1682E-01
  3.1682E-01
  3.1682E-01
   1.3500E-02
  3.1817E-12
  3.1817E-12
  3.1817E-12
  3.1817E-12
  3.1817E-12
  3.1817E-12
  3.1817E-12
  3.1817E-12
  3.1817E-12
  9.5491E-12
  9.5491E-12
  9.5491E-12
  9.5491E-12
  9.5491E-12
  9.5491E-12
  9.5491E-12
  9.5491E-12
  9.5491E-12
  3.8207E-11
  3.8207E-11
  3.8207E-11
  3.8207E-11
  3.8207E-11
  3.8207E-11
  3.8207E-11
  3.8207E-11
  3.8207E-11
  1.4331E-10
  1.4331E-10
  1.4331E-10
  1.4331E-10
  1.4331E-10
  1.4331E-10
  1.4331E-10
  1.4331E-10
  1.4331E-10
  5.3516E-10
  5.3516E-10
  5.3516E-10
  5.3516E-10
  5.3516E-10
  5.3516E-10
  5.3516E-10
  5.3516E-10
  5.3516E-10
  1.9978E-09
  1.9978E-09
  1.9978E-09
  1.9978E-09
  1.9978E-09
  1.9978E-09
  1.9978E-09
  1.9978E-09
  1.9978E-09
  7.4577E-09
  7.4577E-09
  7.4577E-09
  7.4577E-09
  7.4577E-09
  7.4577E-09
  7.4577E-09
  7.4577E-09
  7.4577E-09
  2.7839E-08
  2.7839E-08
  2.7839E-08
  2.7839E-08
  2.7839E-08
  2.7839E-08
  2.7839E-08
  2.7839E-08
  2.7839E-08
  1.0392E-07
  1.0392E-07
  1.0392E-07
  1.0392E-07
  1.0392E-07
  1.0392E-07
  1.0392E-07
  1.0392E-07
  1.0392E-07
  3.8795E-07
  3.8795E-07
  3.8795E-07
  3.8795E-07
  3.8795E-07
  3.8795E-07
  3.8795E-07
  3.8795E-07
  3.8795E-07
  1.4482E-06
  1.4482E-06
  1.4482E-06
  1.4482E-06
  1.4482E-06
  1.4482E-06
  1.4482E-06
  1.4482E-06
  1.4482E-06
  5.4060E-06
  5.4060E-06
  5.4060E-06
  5.4060E-06
  5.4060E-06
  5.4060E-06
  5.4060E-06
  5.4060E-06
  5.4060E-06
  2.0181E-05
  2.0181E-05
  2.0181E-05
  2.0181E-05
  2.0181E-05
  2.0181E-05
  2.0181E-05
  2.0181E-05
  2.0181E-05
  7.5333E-05
  7.5333E-05
  7.5333E-05
  7.5333E-05
  7.5333E-05
  7.5333E-05
  7.5333E-05
  7.5333E-05
  7.5333E-05
  2.8122E-04
  2.8122E-04
  2.8122E-04
  2.8122E-04
  2.8122E-04
  2.8122E-04
  2.8122E-04
  2.8122E-04
  2.8122E-04
  1.0498E-03
  1.0498E-03
  1.0498E-03
  1.0498E-03
  1.0498E-03
  1.0498E-03
  1.0498E-03
  1.0498E-03
  1.0498E-03
  3.9188E-03
  3.9188E-03
  3.9188E-03
  3.9188E-03
  3.9188E-03
  3.9188E-03
  3.9188E-03
  3.9188E-03
  3.9188E-03
  1.4629E-02
  1.4629E-02
  1.4629E-02
  1.4629E-02
  1.4629E-02
  1.4629E-02
  1.4629E-02
  1.4629E-02
  1.4629E-02
  5.4608E-02
  5.4608E-02
  5.4608E-02
  5.4608E-02
  5.4608E-02
  5.4608E-02
  5.4608E-02
  5.4608E-02
  5.4608E-02
  2.0385E-01
  2.0385E-01
  2.0385E-01
  2.0385E-01
  2.0385E-01
  2.0385E-01
  2.0385E-01
  2.0385E-01
  2.0385E-01
  3.2156E-01
  3.2156E-01
  3.2156E-01
  3.2156E-01
  3.2156E-01
  3.2156E-01
  3.2156E-01
  3.2156E-01
  3.2156E-01
   1.3600E-02
  3.2288E-12
  3.2288E-12
  3.2288E-12
  3.2288E-12
  3.2288E-12
  3.2288E-12
  3.2288E-12
  3.2288E-12
  3.2288E-12
  9.6904E-12
  9.6904E-12
  9.6904E-12
  9.6904E-12
  9.6904E-12
  9.6904E-12
  9.6904E-12
  9.6904E-12
  9.6904E-12
  3.8773E-11
  3.8773E-11
  3.8773E-11
  3.8773E-11
  3.8773E-11
  3.8773E-11
  3.8773E-11
  3.8773E-11
  3.8773E-11
  1.4543E-10
  1.4543E-10
  1.4543E-10
  1.4543E-10
  1.4543E-10
  1.4543E-10
  1.4543E-10
  1.4543E-10
  1.4543E-10
  5.4309E-10
  5.4309E-10
  5.4309E-10
  5.4309E-10
  5.4309E-10
  5.4309E-10
  5.4309E-10
  5.4309E-10
  5.4309E-10
  2.0274E-09
  2.0274E-09
  2.0274E-09
  2.0274E-09
  2.0274E-09
  2.0274E-09
  2.0274E-09
  2.0274E-09
  2.0274E-09
  7.5682E-09
  7.5682E-09
  7.5682E-09
  7.5682E-09
  7.5682E-09
  7.5682E-09
  7.5682E-09
  7.5682E-09
  7.5682E-09
  2.8252E-08
  2.8252E-08
  2.8252E-08
  2.8252E-08
  2.8252E-08
  2.8252E-08
  2.8252E-08
  2.8252E-08
  2.8252E-08
  1.0546E-07
  1.0546E-07
  1.0546E-07
  1.0546E-07
  1.0546E-07
  1.0546E-07
  1.0546E-07
  1.0546E-07
  1.0546E-07
  3.9370E-07
  3.9370E-07
  3.9370E-07
  3.9370E-07
  3.9370E-07
  3.9370E-07
  3.9370E-07
  3.9370E-07
  3.9370E-07
  1.4697E-06
  1.4697E-06
  1.4697E-06
  1.4697E-06
  1.4697E-06
  1.4697E-06
  1.4697E-06
  1.4697E-06
  1.4697E-06
  5.4862E-06
  5.4862E-06
  5.4862E-06
  5.4862E-06
  5.4862E-06
  5.4862E-06
  5.4862E-06
  5.4862E-06
  5.4862E-06
  2.0480E-05
  2.0480E-05
  2.0480E-05
  2.0480E-05
  2.0480E-05
  2.0480E-05
  2.0480E-05
  2.0480E-05
  2.0480E-05
  7.6452E-05
  7.6452E-05
  7.6452E-05
  7.6452E-05
  7.6452E-05
  7.6452E-05
  7.6452E-05
  7.6452E-05
  7.6452E-05
  2.8539E-04
  2.8539E-04
  2.8539E-04
  2.8539E-04
  2.8539E-04
  2.8539E-04
  2.8539E-04
  2.8539E-04
  2.8539E-04
  1.0654E-03
  1.0654E-03
  1.0654E-03
  1.0654E-03
  1.0654E-03
  1.0654E-03
  1.0654E-03
  1.0654E-03
  1.0654E-03
  3.9770E-03
  3.9770E-03
  3.9770E-03
  3.9770E-03
  3.9770E-03
  3.9770E-03
  3.9770E-03
  3.9770E-03
  3.9770E-03
  1.4846E-02
  1.4846E-02
  1.4846E-02
  1.4846E-02
  1.4846E-02
  1.4846E-02
  1.4846E-02
  1.4846E-02
  1.4846E-02
  5.5420E-02
  5.5420E-02
  5.5420E-02
  5.5420E-02
  5.5420E-02
  5.5420E-02
  5.5420E-02
  5.5420E-02
  5.5420E-02
  2.0688E-01
  2.0688E-01
  2.0688E-01
  2.0688E-01
  2.0688E-01
  2.0688E-01
  2.0688E-01
  2.0688E-01
  2.0688E-01
  3.2634E-01
  3.2634E-01
  3.2634E-01
  3.2634E-01
  3.2634E-01
  3.2634E-01
  3.2634E-01
  3.2634E-01
  3.2634E-01
   1.3700E-02
  3.2762E-12
  3.2762E-12
  3.2762E-12
  3.2762E-12
  3.2762E-12
  3.2762E-12
  3.2762E-12
  3.2762E-12
  3.2762E-12
  9.8328E-12
  9.8328E-12
  9.8328E-12
  9.8328E-12
  9.8328E-12
  9.8328E-12
  9.8328E-12
  9.8328E-12
  9.8328E-12
  3.9342E-11
  3.9342E-11
  3.9342E-11
  3.9342E-11
  3.9342E-11
  3.9342E-11
  3.9342E-11
  3.9342E-11
  3.9342E-11
  1.4757E-10
  1.4757E-10
  1.4757E-10
  1.4757E-10
  1.4757E-10
  1.4757E-10
  1.4757E-10
  1.4757E-10
  1.4757E-10
  5.5107E-10
  5.5107E-10
  5.5107E-10
  5.5107E-10
  5.5107E-10
  5.5107E-10
  5.5107E-10
  5.5107E-10
  5.5107E-10
  2.0572E-09
  2.0572E-09
  2.0572E-09
  2.0572E-09
  2.0572E-09
  2.0572E-09
  2.0572E-09
  2.0572E-09
  2.0572E-09
  7.6796E-09
  7.6796E-09
  7.6796E-09
  7.6796E-09
  7.6796E-09
  7.6796E-09
  7.6796E-09
  7.6796E-09
  7.6796E-09
  2.8668E-08
  2.8668E-08
  2.8668E-08
  2.8668E-08
  2.8668E-08
  2.8668E-08
  2.8668E-08
  2.8668E-08
  2.8668E-08
  1.0702E-07
  1.0702E-07
  1.0702E-07
  1.0702E-07
  1.0702E-07
  1.0702E-07
  1.0702E-07
  1.0702E-07
  1.0702E-07
  3.9949E-07
  3.9949E-07
  3.9949E-07
  3.9949E-07
  3.9949E-07
  3.9949E-07
  3.9949E-07
  3.9949E-07
  3.9949E-07
  1.4913E-06
  1.4913E-06
  1.4913E-06
  1.4913E-06
  1.4913E-06
  1.4913E-06
  1.4913E-06
  1.4913E-06
  1.4913E-06
  5.5670E-06
  5.5670E-06
  5.5670E-06
  5.5670E-06
  5.5670E-06
  5.5670E-06
  5.5670E-06
  5.5670E-06
  5.5670E-06
  2.0782E-05
  2.0782E-05
  2.0782E-05
  2.0782E-05
  2.0782E-05
  2.0782E-05
  2.0782E-05
  2.0782E-05
  2.0782E-05
  7.7578E-05
  7.7578E-05
  7.7578E-05
  7.7578E-05
  7.7578E-05
  7.7578E-05
  7.7578E-05
  7.7578E-05
  7.7578E-05
  2.8960E-04
  2.8960E-04
  2.8960E-04
  2.8960E-04
  2.8960E-04
  2.8960E-04
  2.8960E-04
  2.8960E-04
  2.8960E-04
  1.0811E-03
  1.0811E-03
  1.0811E-03
  1.0811E-03
  1.0811E-03
  1.0811E-03
  1.0811E-03
  1.0811E-03
  1.0811E-03
  4.0356E-03
  4.0356E-03
  4.0356E-03
  4.0356E-03
  4.0356E-03
  4.0356E-03
  4.0356E-03
  4.0356E-03
  4.0356E-03
  1.5065E-02
  1.5065E-02
  1.5065E-02
  1.5065E-02
  1.5065E-02
  1.5065E-02
  1.5065E-02
  1.5065E-02
  1.5065E-02
  5.6238E-02
  5.6238E-02
  5.6238E-02
  5.6238E-02
  5.6238E-02
  5.6238E-02
  5.6238E-02
  5.6238E-02
  5.6238E-02
  2.0993E-01
  2.0993E-01
  2.0993E-01
  2.0993E-01
  2.0993E-01
  2.0993E-01
  2.0993E-01
  2.0993E-01
  2.0993E-01
  3.3116E-01
  3.3116E-01
  3.3116E-01
  3.3116E-01
  3.3116E-01
  3.3116E-01
  3.3116E-01
  3.3116E-01
  3.3116E-01
   1.3800E-02
  3.3240E-12
  3.3240E-12
  3.3240E-12
  3.3240E-12
  3.3240E-12
  3.3240E-12
  3.3240E-12
  3.3240E-12
  3.3240E-12
  9.9761E-12
  9.9761E-12
  9.9761E-12
  9.9761E-12
  9.9761E-12
  9.9761E-12
  9.9761E-12
  9.9761E-12
  9.9761E-12
  3.9916E-11
  3.9916E-11
  3.9916E-11
  3.9916E-11
  3.9916E-11
  3.9916E-11
  3.9916E-11
  3.9916E-11
  3.9916E-11
  1.4972E-10
  1.4972E-10
  1.4972E-10
  1.4972E-10
  1.4972E-10
  1.4972E-10
  1.4972E-10
  1.4972E-10
  1.4972E-10
  5.5911E-10
  5.5911E-10
  5.5911E-10
  5.5911E-10
  5.5911E-10
  5.5911E-10
  5.5911E-10
  5.5911E-10
  5.5911E-10
  2.0872E-09
  2.0872E-09
  2.0872E-09
  2.0872E-09
  2.0872E-09
  2.0872E-09
  2.0872E-09
  2.0872E-09
  2.0872E-09
  7.7917E-09
  7.7917E-09
  7.7917E-09
  7.7917E-09
  7.7917E-09
  7.7917E-09
  7.7917E-09
  7.7917E-09
  7.7917E-09
  2.9086E-08
  2.9086E-08
  2.9086E-08
  2.9086E-08
  2.9086E-08
  2.9086E-08
  2.9086E-08
  2.9086E-08
  2.9086E-08
  1.0858E-07
  1.0858E-07
  1.0858E-07
  1.0858E-07
  1.0858E-07
  1.0858E-07
  1.0858E-07
  1.0858E-07
  1.0858E-07
  4.0533E-07
  4.0533E-07
  4.0533E-07
  4.0533E-07
  4.0533E-07
  4.0533E-07
  4.0533E-07
  4.0533E-07
  4.0533E-07
  1.5131E-06
  1.5131E-06
  1.5131E-06
  1.5131E-06
  1.5131E-06
  1.5131E-06
  1.5131E-06
  1.5131E-06
  1.5131E-06
  5.6484E-06
  5.6484E-06
  5.6484E-06
  5.6484E-06
  5.6484E-06
  5.6484E-06
  5.6484E-06
  5.6484E-06
  5.6484E-06
  2.1086E-05
  2.1086E-05
  2.1086E-05
  2.1086E-05
  2.1086E-05
  2.1086E-05
  2.1086E-05
  2.1086E-05
  2.1086E-05
  7.8713E-05
  7.8713E-05
  7.8713E-05
  7.8713E-05
  7.8713E-05
  7.8713E-05
  7.8713E-05
  7.8713E-05
  7.8713E-05
  2.9384E-04
  2.9384E-04
  2.9384E-04
  2.9384E-04
  2.9384E-04
  2.9384E-04
  2.9384E-04
  2.9384E-04
  2.9384E-04
  1.0969E-03
  1.0969E-03
  1.0969E-03
  1.0969E-03
  1.0969E-03
  1.0969E-03
  1.0969E-03
  1.0969E-03
  1.0969E-03
  4.0947E-03
  4.0947E-03
  4.0947E-03
  4.0947E-03
  4.0947E-03
  4.0947E-03
  4.0947E-03
  4.0947E-03
  4.0947E-03
  1.5286E-02
  1.5286E-02
  1.5286E-02
  1.5286E-02
  1.5286E-02
  1.5286E-02
  1.5286E-02
  1.5286E-02
  1.5286E-02
  5.7061E-02
  5.7061E-02
  5.7061E-02
  5.7061E-02
  5.7061E-02
  5.7061E-02
  5.7061E-02
  5.7061E-02
  5.7061E-02
  2.1301E-01
  2.1301E-01
  2.1301E-01
  2.1301E-01
  2.1301E-01
  2.1301E-01
  2.1301E-01
  2.1301E-01
  2.1301E-01
  3.3601E-01
  3.3601E-01
  3.3601E-01
  3.3601E-01
  3.3601E-01
  3.3601E-01
  3.3601E-01
  3.3601E-01
  3.3601E-01
   1.3900E-02
  3.3720E-12
  3.3720E-12
  3.3720E-12
  3.3720E-12
  3.3720E-12
  3.3720E-12
  3.3720E-12
  3.3720E-12
  3.3720E-12
  1.0121E-11
  1.0121E-11
  1.0121E-11
  1.0121E-11
  1.0121E-11
  1.0121E-11
  1.0121E-11
  1.0121E-11
  1.0121E-11
  4.0494E-11
  4.0494E-11
  4.0494E-11
  4.0494E-11
  4.0494E-11
  4.0494E-11
  4.0494E-11
  4.0494E-11
  4.0494E-11
  1.5189E-10
  1.5189E-10
  1.5189E-10
  1.5189E-10
  1.5189E-10
  1.5189E-10
  1.5189E-10
  1.5189E-10
  1.5189E-10
  5.6721E-10
  5.6721E-10
  5.6721E-10
  5.6721E-10
  5.6721E-10
  5.6721E-10
  5.6721E-10
  5.6721E-10
  5.6721E-10
  2.1175E-09
  2.1175E-09
  2.1175E-09
  2.1175E-09
  2.1175E-09
  2.1175E-09
  2.1175E-09
  2.1175E-09
  2.1175E-09
  7.9046E-09
  7.9046E-09
  7.9046E-09
  7.9046E-09
  7.9046E-09
  7.9046E-09
  7.9046E-09
  7.9046E-09
  7.9046E-09
  2.9508E-08
  2.9508E-08
  2.9508E-08
  2.9508E-08
  2.9508E-08
  2.9508E-08
  2.9508E-08
  2.9508E-08
  2.9508E-08
  1.1015E-07
  1.1015E-07
  1.1015E-07
  1.1015E-07
  1.1015E-07
  1.1015E-07
  1.1015E-07
  1.1015E-07
  1.1015E-07
  4.1121E-07
  4.1121E-07
  4.1121E-07
  4.1121E-07
  4.1121E-07
  4.1121E-07
  4.1121E-07
  4.1121E-07
  4.1121E-07
  1.5351E-06
  1.5351E-06
  1.5351E-06
  1.5351E-06
  1.5351E-06
  1.5351E-06
  1.5351E-06
  1.5351E-06
  1.5351E-06
  5.7304E-06
  5.7304E-06
  5.7304E-06
  5.7304E-06
  5.7304E-06
  5.7304E-06
  5.7304E-06
  5.7304E-06
  5.7304E-06
  2.1392E-05
  2.1392E-05
  2.1392E-05
  2.1392E-05
  2.1392E-05
  2.1392E-05
  2.1392E-05
  2.1392E-05
  2.1392E-05
  7.9856E-05
  7.9856E-05
  7.9856E-05
  7.9856E-05
  7.9856E-05
  7.9856E-05
  7.9856E-05
  7.9856E-05
  7.9856E-05
  2.9810E-04
  2.9810E-04
  2.9810E-04
  2.9810E-04
  2.9810E-04
  2.9810E-04
  2.9810E-04
  2.9810E-04
  2.9810E-04
  1.1128E-03
  1.1128E-03
  1.1128E-03
  1.1128E-03
  1.1128E-03
  1.1128E-03
  1.1128E-03
  1.1128E-03
  1.1128E-03
  4.1542E-03
  4.1542E-03
  4.1542E-03
  4.1542E-03
  4.1542E-03
  4.1542E-03
  4.1542E-03
  4.1542E-03
  4.1542E-03
  1.5508E-02
  1.5508E-02
  1.5508E-02
  1.5508E-02
  1.5508E-02
  1.5508E-02
  1.5508E-02
  1.5508E-02
  1.5508E-02
  5.7891E-02
  5.7891E-02
  5.7891E-02
  5.7891E-02
  5.7891E-02
  5.7891E-02
  5.7891E-02
  5.7891E-02
  5.7891E-02
  2.1611E-01
  2.1611E-01
  2.1611E-01
  2.1611E-01
  2.1611E-01
  2.1611E-01
  2.1611E-01
  2.1611E-01
  2.1611E-01
  3.4090E-01
  3.4090E-01
  3.4090E-01
  3.4090E-01
  3.4090E-01
  3.4090E-01
  3.4090E-01
  3.4090E-01
  3.4090E-01
   1.4000E-02
  3.4205E-12
  3.4205E-12
  3.4205E-12
  3.4205E-12
  3.4205E-12
  3.4205E-12
  3.4205E-12
  3.4205E-12
  3.4205E-12
  1.0266E-11
  1.0266E-11
  1.0266E-11
  1.0266E-11
  1.0266E-11
  1.0266E-11
  1.0266E-11
  1.0266E-11
  1.0266E-11
  4.1076E-11
  4.1076E-11
  4.1076E-11
  4.1076E-11
  4.1076E-11
  4.1076E-11
  4.1076E-11
  4.1076E-11
  4.1076E-11
  1.5408E-10
  1.5408E-10
  1.5408E-10
  1.5408E-10
  1.5408E-10
  1.5408E-10
  1.5408E-10
  1.5408E-10
  1.5408E-10
  5.7537E-10
  5.7537E-10
  5.7537E-10
  5.7537E-10
  5.7537E-10
  5.7537E-10
  5.7537E-10
  5.7537E-10
  5.7537E-10
  2.1479E-09
  2.1479E-09
  2.1479E-09
  2.1479E-09
  2.1479E-09
  2.1479E-09
  2.1479E-09
  2.1479E-09
  2.1479E-09
  8.0183E-09
  8.0183E-09
  8.0183E-09
  8.0183E-09
  8.0183E-09
  8.0183E-09
  8.0183E-09
  8.0183E-09
  8.0183E-09
  2.9933E-08
  2.9933E-08
  2.9933E-08
  2.9933E-08
  2.9933E-08
  2.9933E-08
  2.9933E-08
  2.9933E-08
  2.9933E-08
  1.1174E-07
  1.1174E-07
  1.1174E-07
  1.1174E-07
  1.1174E-07
  1.1174E-07
  1.1174E-07
  1.1174E-07
  1.1174E-07
  4.1713E-07
  4.1713E-07
  4.1713E-07
  4.1713E-07
  4.1713E-07
  4.1713E-07
  4.1713E-07
  4.1713E-07
  4.1713E-07
  1.5572E-06
  1.5572E-06
  1.5572E-06
  1.5572E-06
  1.5572E-06
  1.5572E-06
  1.5572E-06
  1.5572E-06
  1.5572E-06
  5.8129E-06
  5.8129E-06
  5.8129E-06
  5.8129E-06
  5.8129E-06
  5.8129E-06
  5.8129E-06
  5.8129E-06
  5.8129E-06
  2.1700E-05
  2.1700E-05
  2.1700E-05
  2.1700E-05
  2.1700E-05
  2.1700E-05
  2.1700E-05
  2.1700E-05
  2.1700E-05
  8.1007E-05
  8.1007E-05
  8.1007E-05
  8.1007E-05
  8.1007E-05
  8.1007E-05
  8.1007E-05
  8.1007E-05
  8.1007E-05
  3.0240E-04
  3.0240E-04
  3.0240E-04
  3.0240E-04
  3.0240E-04
  3.0240E-04
  3.0240E-04
  3.0240E-04
  3.0240E-04
  1.1289E-03
  1.1289E-03
  1.1289E-03
  1.1289E-03
  1.1289E-03
  1.1289E-03
  1.1289E-03
  1.1289E-03
  1.1289E-03
  4.2141E-03
  4.2141E-03
  4.2141E-03
  4.2141E-03
  4.2141E-03
  4.2141E-03
  4.2141E-03
  4.2141E-03
  4.2141E-03
  1.5732E-02
  1.5732E-02
  1.5732E-02
  1.5732E-02
  1.5732E-02
  1.5732E-02
  1.5732E-02
  1.5732E-02
  1.5732E-02
  5.8726E-02
  5.8726E-02
  5.8726E-02
  5.8726E-02
  5.8726E-02
  5.8726E-02
  5.8726E-02
  5.8726E-02
  5.8726E-02
  2.1923E-01
  2.1923E-01
  2.1923E-01
  2.1923E-01
  2.1923E-01
  2.1923E-01
  2.1923E-01
  2.1923E-01
  2.1923E-01
  3.4582E-01
  3.4582E-01
  3.4582E-01
  3.4582E-01
  3.4582E-01
  3.4582E-01
  3.4582E-01
  3.4582E-01
  3.4582E-01
   1.4100E-02
  3.4692E-12
  3.4692E-12
  3.4692E-12
  3.4692E-12
  3.4692E-12
  3.4692E-12
  3.4692E-12
  3.4692E-12
  3.4692E-12
  1.0412E-11
  1.0412E-11
  1.0412E-11
  1.0412E-11
  1.0412E-11
  1.0412E-11
  1.0412E-11
  1.0412E-11
  1.0412E-11
  4.1662E-11
  4.1662E-11
  4.1662E-11
  4.1662E-11
  4.1662E-11
  4.1662E-11
  4.1662E-11
  4.1662E-11
  4.1662E-11
  1.5628E-10
  1.5628E-10
  1.5628E-10
  1.5628E-10
  1.5628E-10
  1.5628E-10
  1.5628E-10
  1.5628E-10
  1.5628E-10
  5.8358E-10
  5.8358E-10
  5.8358E-10
  5.8358E-10
  5.8358E-10
  5.8358E-10
  5.8358E-10
  5.8358E-10
  5.8358E-10
  2.1786E-09
  2.1786E-09
  2.1786E-09
  2.1786E-09
  2.1786E-09
  2.1786E-09
  2.1786E-09
  2.1786E-09
  2.1786E-09
  8.1329E-09
  8.1329E-09
  8.1329E-09
  8.1329E-09
  8.1329E-09
  8.1329E-09
  8.1329E-09
  8.1329E-09
  8.1329E-09
  3.0360E-08
  3.0360E-08
  3.0360E-08
  3.0360E-08
  3.0360E-08
  3.0360E-08
  3.0360E-08
  3.0360E-08
  3.0360E-08
  1.1334E-07
  1.1334E-07
  1.1334E-07
  1.1334E-07
  1.1334E-07
  1.1334E-07
  1.1334E-07
  1.1334E-07
  1.1334E-07
  4.2309E-07
  4.2309E-07
  4.2309E-07
  4.2309E-07
  4.2309E-07
  4.2309E-07
  4.2309E-07
  4.2309E-07
  4.2309E-07
  1.5794E-06
  1.5794E-06
  1.5794E-06
  1.5794E-06
  1.5794E-06
  1.5794E-06
  1.5794E-06
  1.5794E-06
  1.5794E-06
  5.8961E-06
  5.8961E-06
  5.8961E-06
  5.8961E-06
  5.8961E-06
  5.8961E-06
  5.8961E-06
  5.8961E-06
  5.8961E-06
  2.2010E-05
  2.2010E-05
  2.2010E-05
  2.2010E-05
  2.2010E-05
  2.2010E-05
  2.2010E-05
  2.2010E-05
  2.2010E-05
  8.2166E-05
  8.2166E-05
  8.2166E-05
  8.2166E-05
  8.2166E-05
  8.2166E-05
  8.2166E-05
  8.2166E-05
  8.2166E-05
  3.0673E-04
  3.0673E-04
  3.0673E-04
  3.0673E-04
  3.0673E-04
  3.0673E-04
  3.0673E-04
  3.0673E-04
  3.0673E-04
  1.1450E-03
  1.1450E-03
  1.1450E-03
  1.1450E-03
  1.1450E-03
  1.1450E-03
  1.1450E-03
  1.1450E-03
  1.1450E-03
  4.2745E-03
  4.2745E-03
  4.2745E-03
  4.2745E-03
  4.2745E-03
  4.2745E-03
  4.2745E-03
  4.2745E-03
  4.2745E-03
  1.5957E-02
  1.5957E-02
  1.5957E-02
  1.5957E-02
  1.5957E-02
  1.5957E-02
  1.5957E-02
  1.5957E-02
  1.5957E-02
  5.9568E-02
  5.9568E-02
  5.9568E-02
  5.9568E-02
  5.9568E-02
  5.9568E-02
  5.9568E-02
  5.9568E-02
  5.9568E-02
  2.2237E-01
  2.2237E-01
  2.2237E-01
  2.2237E-01
  2.2237E-01
  2.2237E-01
  2.2237E-01
  2.2237E-01
  2.2237E-01
  3.5078E-01
  3.5078E-01
  3.5078E-01
  3.5078E-01
  3.5078E-01
  3.5078E-01
  3.5078E-01
  3.5078E-01
  3.5078E-01
   1.4200E-02
  3.5183E-12
  3.5183E-12
  3.5183E-12
  3.5183E-12
  3.5183E-12
  3.5183E-12
  3.5183E-12
  3.5183E-12
  3.5183E-12
  1.0560E-11
  1.0560E-11
  1.0560E-11
  1.0560E-11
  1.0560E-11
  1.0560E-11
  1.0560E-11
  1.0560E-11
  1.0560E-11
  4.2252E-11
  4.2252E-11
  4.2252E-11
  4.2252E-11
  4.2252E-11
  4.2252E-11
  4.2252E-11
  4.2252E-11
  4.2252E-11
  1.5849E-10
  1.5849E-10
  1.5849E-10
  1.5849E-10
  1.5849E-10
  1.5849E-10
  1.5849E-10
  1.5849E-10
  1.5849E-10
  5.9185E-10
  5.9185E-10
  5.9185E-10
  5.9185E-10
  5.9185E-10
  5.9185E-10
  5.9185E-10
  5.9185E-10
  5.9185E-10
  2.2095E-09
  2.2095E-09
  2.2095E-09
  2.2095E-09
  2.2095E-09
  2.2095E-09
  2.2095E-09
  2.2095E-09
  2.2095E-09
  8.2482E-09
  8.2482E-09
  8.2482E-09
  8.2482E-09
  8.2482E-09
  8.2482E-09
  8.2482E-09
  8.2482E-09
  8.2482E-09
  3.0791E-08
  3.0791E-08
  3.0791E-08
  3.0791E-08
  3.0791E-08
  3.0791E-08
  3.0791E-08
  3.0791E-08
  3.0791E-08
  1.1495E-07
  1.1495E-07
  1.1495E-07
  1.1495E-07
  1.1495E-07
  1.1495E-07
  1.1495E-07
  1.1495E-07
  1.1495E-07
  4.2910E-07
  4.2910E-07
  4.2910E-07
  4.2910E-07
  4.2910E-07
  4.2910E-07
  4.2910E-07
  4.2910E-07
  4.2910E-07
  1.6019E-06
  1.6019E-06
  1.6019E-06
  1.6019E-06
  1.6019E-06
  1.6019E-06
  1.6019E-06
  1.6019E-06
  1.6019E-06
  5.9798E-06
  5.9798E-06
  5.9798E-06
  5.9798E-06
  5.9798E-06
  5.9798E-06
  5.9798E-06
  5.9798E-06
  5.9798E-06
  2.2323E-05
  2.2323E-05
  2.2323E-05
  2.2323E-05
  2.2323E-05
  2.2323E-05
  2.2323E-05
  2.2323E-05
  2.2323E-05
  8.3333E-05
  8.3333E-05
  8.3333E-05
  8.3333E-05
  8.3333E-05
  8.3333E-05
  8.3333E-05
  8.3333E-05
  8.3333E-05
  3.1109E-04
  3.1109E-04
  3.1109E-04
  3.1109E-04
  3.1109E-04
  3.1109E-04
  3.1109E-04
  3.1109E-04
  3.1109E-04
  1.1613E-03
  1.1613E-03
  1.1613E-03
  1.1613E-03
  1.1613E-03
  1.1613E-03
  1.1613E-03
  1.1613E-03
  1.1613E-03
  4.3353E-03
  4.3353E-03
  4.3353E-03
  4.3353E-03
  4.3353E-03
  4.3353E-03
  4.3353E-03
  4.3353E-03
  4.3353E-03
  1.6184E-02
  1.6184E-02
  1.6184E-02
  1.6184E-02
  1.6184E-02
  1.6184E-02
  1.6184E-02
  1.6184E-02
  1.6184E-02
  6.0415E-02
  6.0415E-02
  6.0415E-02
  6.0415E-02
  6.0415E-02
  6.0415E-02
  6.0415E-02
  6.0415E-02
  6.0415E-02
  2.2553E-01
  2.2553E-01
  2.2553E-01
  2.2553E-01
  2.2553E-01
  2.2553E-01
  2.2553E-01
  2.2553E-01
  2.2553E-01
  3.5577E-01
  3.5577E-01
  3.5577E-01
  3.5577E-01
  3.5577E-01
  3.5577E-01
  3.5577E-01
  3.5577E-01
  3.5577E-01
   1.4300E-02
  3.5678E-12
  3.5678E-12
  3.5678E-12
  3.5678E-12
  3.5678E-12
  3.5678E-12
  3.5678E-12
  3.5678E-12
  3.5678E-12
  1.0708E-11
  1.0708E-11
  1.0708E-11
  1.0708E-11
  1.0708E-11
  1.0708E-11
  1.0708E-11
  1.0708E-11
  1.0708E-11
  4.2847E-11
  4.2847E-11
  4.2847E-11
  4.2847E-11
  4.2847E-11
  4.2847E-11
  4.2847E-11
  4.2847E-11
  4.2847E-11
  1.6072E-10
  1.6072E-10
  1.6072E-10
  1.6072E-10
  1.6072E-10
  1.6072E-10
  1.6072E-10
  1.6072E-10
  1.6072E-10
  6.0018E-10
  6.0018E-10
  6.0018E-10
  6.0018E-10
  6.0018E-10
  6.0018E-10
  6.0018E-10
  6.0018E-10
  6.0018E-10
  2.2406E-09
  2.2406E-09
  2.2406E-09
  2.2406E-09
  2.2406E-09
  2.2406E-09
  2.2406E-09
  2.2406E-09
  2.2406E-09
  8.3643E-09
  8.3643E-09
  8.3643E-09
  8.3643E-09
  8.3643E-09
  8.3643E-09
  8.3643E-09
  8.3643E-09
  8.3643E-09
  3.1225E-08
  3.1225E-08
  3.1225E-08
  3.1225E-08
  3.1225E-08
  3.1225E-08
  3.1225E-08
  3.1225E-08
  3.1225E-08
  1.1656E-07
  1.1656E-07
  1.1656E-07
  1.1656E-07
  1.1656E-07
  1.1656E-07
  1.1656E-07
  1.1656E-07
  1.1656E-07
  4.3514E-07
  4.3514E-07
  4.3514E-07
  4.3514E-07
  4.3514E-07
  4.3514E-07
  4.3514E-07
  4.3514E-07
  4.3514E-07
  1.6244E-06
  1.6244E-06
  1.6244E-06
  1.6244E-06
  1.6244E-06
  1.6244E-06
  1.6244E-06
  1.6244E-06
  1.6244E-06
  6.0641E-06
  6.0641E-06
  6.0641E-06
  6.0641E-06
  6.0641E-06
  6.0641E-06
  6.0641E-06
  6.0641E-06
  6.0641E-06
  2.2638E-05
  2.2638E-05
  2.2638E-05
  2.2638E-05
  2.2638E-05
  2.2638E-05
  2.2638E-05
  2.2638E-05
  2.2638E-05
  8.4509E-05
  8.4509E-05
  8.4509E-05
  8.4509E-05
  8.4509E-05
  8.4509E-05
  8.4509E-05
  8.4509E-05
  8.4509E-05
  3.1548E-04
  3.1548E-04
  3.1548E-04
  3.1548E-04
  3.1548E-04
  3.1548E-04
  3.1548E-04
  3.1548E-04
  3.1548E-04
  1.1777E-03
  1.1777E-03
  1.1777E-03
  1.1777E-03
  1.1777E-03
  1.1777E-03
  1.1777E-03
  1.1777E-03
  1.1777E-03
  4.3965E-03
  4.3965E-03
  4.3965E-03
  4.3965E-03
  4.3965E-03
  4.3965E-03
  4.3965E-03
  4.3965E-03
  4.3965E-03
  1.6412E-02
  1.6412E-02
  1.6412E-02
  1.6412E-02
  1.6412E-02
  1.6412E-02
  1.6412E-02
  1.6412E-02
  1.6412E-02
  6.1269E-02
  6.1269E-02
  6.1269E-02
  6.1269E-02
  6.1269E-02
  6.1269E-02
  6.1269E-02
  6.1269E-02
  6.1269E-02
  2.2872E-01
  2.2872E-01
  2.2872E-01
  2.2872E-01
  2.2872E-01
  2.2872E-01
  2.2872E-01
  2.2872E-01
  2.2872E-01
  3.6080E-01
  3.6080E-01
  3.6080E-01
  3.6080E-01
  3.6080E-01
  3.6080E-01
  3.6080E-01
  3.6080E-01
  3.6080E-01
   1.4400E-02
  3.6176E-12
  3.6176E-12
  3.6176E-12
  3.6176E-12
  3.6176E-12
  3.6176E-12
  3.6176E-12
  3.6176E-12
  3.6176E-12
  1.0858E-11
  1.0858E-11
  1.0858E-11
  1.0858E-11
  1.0858E-11
  1.0858E-11
  1.0858E-11
  1.0858E-11
  1.0858E-11
  4.3445E-11
  4.3445E-11
  4.3445E-11
  4.3445E-11
  4.3445E-11
  4.3445E-11
  4.3445E-11
  4.3445E-11
  4.3445E-11
  1.6296E-10
  1.6296E-10
  1.6296E-10
  1.6296E-10
  1.6296E-10
  1.6296E-10
  1.6296E-10
  1.6296E-10
  1.6296E-10
  6.0857E-10
  6.0857E-10
  6.0857E-10
  6.0857E-10
  6.0857E-10
  6.0857E-10
  6.0857E-10
  6.0857E-10
  6.0857E-10
  2.2719E-09
  2.2719E-09
  2.2719E-09
  2.2719E-09
  2.2719E-09
  2.2719E-09
  2.2719E-09
  2.2719E-09
  2.2719E-09
  8.4813E-09
  8.4813E-09
  8.4813E-09
  8.4813E-09
  8.4813E-09
  8.4813E-09
  8.4813E-09
  8.4813E-09
  8.4813E-09
  3.1661E-08
  3.1661E-08
  3.1661E-08
  3.1661E-08
  3.1661E-08
  3.1661E-08
  3.1661E-08
  3.1661E-08
  3.1661E-08
  1.1819E-07
  1.1819E-07
  1.1819E-07
  1.1819E-07
  1.1819E-07
  1.1819E-07
  1.1819E-07
  1.1819E-07
  1.1819E-07
  4.4123E-07
  4.4123E-07
  4.4123E-07
  4.4123E-07
  4.4123E-07
  4.4123E-07
  4.4123E-07
  4.4123E-07
  4.4123E-07
  1.6472E-06
  1.6472E-06
  1.6472E-06
  1.6472E-06
  1.6472E-06
  1.6472E-06
  1.6472E-06
  1.6472E-06
  1.6472E-06
  6.1490E-06
  6.1490E-06
  6.1490E-06
  6.1490E-06
  6.1490E-06
  6.1490E-06
  6.1490E-06
  6.1490E-06
  6.1490E-06
  2.2955E-05
  2.2955E-05
  2.2955E-05
  2.2955E-05
  2.2955E-05
  2.2955E-05
  2.2955E-05
  2.2955E-05
  2.2955E-05
  8.5693E-05
  8.5693E-05
  8.5693E-05
  8.5693E-05
  8.5693E-05
  8.5693E-05
  8.5693E-05
  8.5693E-05
  8.5693E-05
  3.1990E-04
  3.1990E-04
  3.1990E-04
  3.1990E-04
  3.1990E-04
  3.1990E-04
  3.1990E-04
  3.1990E-04
  3.1990E-04
  1.1942E-03
  1.1942E-03
  1.1942E-03
  1.1942E-03
  1.1942E-03
  1.1942E-03
  1.1942E-03
  1.1942E-03
  1.1942E-03
  4.4581E-03
  4.4581E-03
  4.4581E-03
  4.4581E-03
  4.4581E-03
  4.4581E-03
  4.4581E-03
  4.4581E-03
  4.4581E-03
  1.6643E-02
  1.6643E-02
  1.6643E-02
  1.6643E-02
  1.6643E-02
  1.6643E-02
  1.6643E-02
  1.6643E-02
  1.6643E-02
  6.2128E-02
  6.2128E-02
  6.2128E-02
  6.2128E-02
  6.2128E-02
  6.2128E-02
  6.2128E-02
  6.2128E-02
  6.2128E-02
  2.3193E-01
  2.3193E-01
  2.3193E-01
  2.3193E-01
  2.3193E-01
  2.3193E-01
  2.3193E-01
  2.3193E-01
  2.3193E-01
  3.6586E-01
  3.6586E-01
  3.6586E-01
  3.6586E-01
  3.6586E-01
  3.6586E-01
  3.6586E-01
  3.6586E-01
  3.6586E-01
   1.4500E-02
  3.6677E-12
  3.6677E-12
  3.6677E-12
  3.6677E-12
  3.6677E-12
  3.6677E-12
  3.6677E-12
  3.6677E-12
  3.6677E-12
  1.1008E-11
  1.1008E-11
  1.1008E-11
  1.1008E-11
  1.1008E-11
  1.1008E-11
  1.1008E-11
  1.1008E-11
  1.1008E-11
  4.4047E-11
  4.4047E-11
  4.4047E-11
  4.4047E-11
  4.4047E-11
  4.4047E-11
  4.4047E-11
  4.4047E-11
  4.4047E-11
  1.6522E-10
  1.6522E-10
  1.6522E-10
  1.6522E-10
  1.6522E-10
  1.6522E-10
  1.6522E-10
  1.6522E-10
  1.6522E-10
  6.1701E-10
  6.1701E-10
  6.1701E-10
  6.1701E-10
  6.1701E-10
  6.1701E-10
  6.1701E-10
  6.1701E-10
  6.1701E-10
  2.3034E-09
  2.3034E-09
  2.3034E-09
  2.3034E-09
  2.3034E-09
  2.3034E-09
  2.3034E-09
  2.3034E-09
  2.3034E-09
  8.5990E-09
  8.5990E-09
  8.5990E-09
  8.5990E-09
  8.5990E-09
  8.5990E-09
  8.5990E-09
  8.5990E-09
  8.5990E-09
  3.2101E-08
  3.2101E-08
  3.2101E-08
  3.2101E-08
  3.2101E-08
  3.2101E-08
  3.2101E-08
  3.2101E-08
  3.2101E-08
  1.1984E-07
  1.1984E-07
  1.1984E-07
  1.1984E-07
  1.1984E-07
  1.1984E-07
  1.1984E-07
  1.1984E-07
  1.1984E-07
  4.4736E-07
  4.4736E-07
  4.4736E-07
  4.4736E-07
  4.4736E-07
  4.4736E-07
  4.4736E-07
  4.4736E-07
  4.4736E-07
  1.6701E-06
  1.6701E-06
  1.6701E-06
  1.6701E-06
  1.6701E-06
  1.6701E-06
  1.6701E-06
  1.6701E-06
  1.6701E-06
  6.2345E-06
  6.2345E-06
  6.2345E-06
  6.2345E-06
  6.2345E-06
  6.2345E-06
  6.2345E-06
  6.2345E-06
  6.2345E-06
  2.3274E-05
  2.3274E-05
  2.3274E-05
  2.3274E-05
  2.3274E-05
  2.3274E-05
  2.3274E-05
  2.3274E-05
  2.3274E-05
  8.6885E-05
  8.6885E-05
  8.6885E-05
  8.6885E-05
  8.6885E-05
  8.6885E-05
  8.6885E-05
  8.6885E-05
  8.6885E-05
  3.2435E-04
  3.2435E-04
  3.2435E-04
  3.2435E-04
  3.2435E-04
  3.2435E-04
  3.2435E-04
  3.2435E-04
  3.2435E-04
  1.2108E-03
  1.2108E-03
  1.2108E-03
  1.2108E-03
  1.2108E-03
  1.2108E-03
  1.2108E-03
  1.2108E-03
  1.2108E-03
  4.5202E-03
  4.5202E-03
  4.5202E-03
  4.5202E-03
  4.5202E-03
  4.5202E-03
  4.5202E-03
  4.5202E-03
  4.5202E-03
  1.6874E-02
  1.6874E-02
  1.6874E-02
  1.6874E-02
  1.6874E-02
  1.6874E-02
  1.6874E-02
  1.6874E-02
  1.6874E-02
  6.2994E-02
  6.2994E-02
  6.2994E-02
  6.2994E-02
  6.2994E-02
  6.2994E-02
  6.2994E-02
  6.2994E-02
  6.2994E-02
  2.3516E-01
  2.3516E-01
  2.3516E-01
  2.3516E-01
  2.3516E-01
  2.3516E-01
  2.3516E-01
  2.3516E-01
  2.3516E-01
  3.7096E-01
  3.7096E-01
  3.7096E-01
  3.7096E-01
  3.7096E-01
  3.7096E-01
  3.7096E-01
  3.7096E-01
  3.7096E-01
   1.4600E-02
  3.7182E-12
  3.7182E-12
  3.7182E-12
  3.7182E-12
  3.7182E-12
  3.7182E-12
  3.7182E-12
  3.7182E-12
  3.7182E-12
  1.1160E-11
  1.1160E-11
  1.1160E-11
  1.1160E-11
  1.1160E-11
  1.1160E-11
  1.1160E-11
  1.1160E-11
  1.1160E-11
  4.4654E-11
  4.4654E-11
  4.4654E-11
  4.4654E-11
  4.4654E-11
  4.4654E-11
  4.4654E-11
  4.4654E-11
  4.4654E-11
  1.6750E-10
  1.6750E-10
  1.6750E-10
  1.6750E-10
  1.6750E-10
  1.6750E-10
  1.6750E-10
  1.6750E-10
  1.6750E-10
  6.2551E-10
  6.2551E-10
  6.2551E-10
  6.2551E-10
  6.2551E-10
  6.2551E-10
  6.2551E-10
  6.2551E-10
  6.2551E-10
  2.3352E-09
  2.3352E-09
  2.3352E-09
  2.3352E-09
  2.3352E-09
  2.3352E-09
  2.3352E-09
  2.3352E-09
  2.3352E-09
  8.7175E-09
  8.7175E-09
  8.7175E-09
  8.7175E-09
  8.7175E-09
  8.7175E-09
  8.7175E-09
  8.7175E-09
  8.7175E-09
  3.2544E-08
  3.2544E-08
  3.2544E-08
  3.2544E-08
  3.2544E-08
  3.2544E-08
  3.2544E-08
  3.2544E-08
  3.2544E-08
  1.2149E-07
  1.2149E-07
  1.2149E-07
  1.2149E-07
  1.2149E-07
  1.2149E-07
  1.2149E-07
  1.2149E-07
  1.2149E-07
  4.5354E-07
  4.5354E-07
  4.5354E-07
  4.5354E-07
  4.5354E-07
  4.5354E-07
  4.5354E-07
  4.5354E-07
  4.5354E-07
  1.6931E-06
  1.6931E-06
  1.6931E-06
  1.6931E-06
  1.6931E-06
  1.6931E-06
  1.6931E-06
  1.6931E-06
  1.6931E-06
  6.3206E-06
  6.3206E-06
  6.3206E-06
  6.3206E-06
  6.3206E-06
  6.3206E-06
  6.3206E-06
  6.3206E-06
  6.3206E-06
  2.3596E-05
  2.3596E-05
  2.3596E-05
  2.3596E-05
  2.3596E-05
  2.3596E-05
  2.3596E-05
  2.3596E-05
  2.3596E-05
  8.8085E-05
  8.8085E-05
  8.8085E-05
  8.8085E-05
  8.8085E-05
  8.8085E-05
  8.8085E-05
  8.8085E-05
  8.8085E-05
  3.2883E-04
  3.2883E-04
  3.2883E-04
  3.2883E-04
  3.2883E-04
  3.2883E-04
  3.2883E-04
  3.2883E-04
  3.2883E-04
  1.2276E-03
  1.2276E-03
  1.2276E-03
  1.2276E-03
  1.2276E-03
  1.2276E-03
  1.2276E-03
  1.2276E-03
  1.2276E-03
  4.5827E-03
  4.5827E-03
  4.5827E-03
  4.5827E-03
  4.5827E-03
  4.5827E-03
  4.5827E-03
  4.5827E-03
  4.5827E-03
  1.7108E-02
  1.7108E-02
  1.7108E-02
  1.7108E-02
  1.7108E-02
  1.7108E-02
  1.7108E-02
  1.7108E-02
  1.7108E-02
  6.3865E-02
  6.3865E-02
  6.3865E-02
  6.3865E-02
  6.3865E-02
  6.3865E-02
  6.3865E-02
  6.3865E-02
  6.3865E-02
  2.3842E-01
  2.3842E-01
  2.3842E-01
  2.3842E-01
  2.3842E-01
  2.3842E-01
  2.3842E-01
  2.3842E-01
  2.3842E-01
  3.7609E-01
  3.7609E-01
  3.7609E-01
  3.7609E-01
  3.7609E-01
  3.7609E-01
  3.7609E-01
  3.7609E-01
  3.7609E-01
   1.4700E-02
  3.7690E-12
  3.7690E-12
  3.7690E-12
  3.7690E-12
  3.7690E-12
  3.7690E-12
  3.7690E-12
  3.7690E-12
  3.7690E-12
  1.1312E-11
  1.1312E-11
  1.1312E-11
  1.1312E-11
  1.1312E-11
  1.1312E-11
  1.1312E-11
  1.1312E-11
  1.1312E-11
  4.5264E-11
  4.5264E-11
  4.5264E-11
  4.5264E-11
  4.5264E-11
  4.5264E-11
  4.5264E-11
  4.5264E-11
  4.5264E-11
  1.6979E-10
  1.6979E-10
  1.6979E-10
  1.6979E-10
  1.6979E-10
  1.6979E-10
  1.6979E-10
  1.6979E-10
  1.6979E-10
  6.3407E-10
  6.3407E-10
  6.3407E-10
  6.3407E-10
  6.3407E-10
  6.3407E-10
  6.3407E-10
  6.3407E-10
  6.3407E-10
  2.3671E-09
  2.3671E-09
  2.3671E-09
  2.3671E-09
  2.3671E-09
  2.3671E-09
  2.3671E-09
  2.3671E-09
  2.3671E-09
  8.8369E-09
  8.8369E-09
  8.8369E-09
  8.8369E-09
  8.8369E-09
  8.8369E-09
  8.8369E-09
  8.8369E-09
  8.8369E-09
  3.2989E-08
  3.2989E-08
  3.2989E-08
  3.2989E-08
  3.2989E-08
  3.2989E-08
  3.2989E-08
  3.2989E-08
  3.2989E-08
  1.2315E-07
  1.2315E-07
  1.2315E-07
  1.2315E-07
  1.2315E-07
  1.2315E-07
  1.2315E-07
  1.2315E-07
  1.2315E-07
  4.5975E-07
  4.5975E-07
  4.5975E-07
  4.5975E-07
  4.5975E-07
  4.5975E-07
  4.5975E-07
  4.5975E-07
  4.5975E-07
  1.7163E-06
  1.7163E-06
  1.7163E-06
  1.7163E-06
  1.7163E-06
  1.7163E-06
  1.7163E-06
  1.7163E-06
  1.7163E-06
  6.4072E-06
  6.4072E-06
  6.4072E-06
  6.4072E-06
  6.4072E-06
  6.4072E-06
  6.4072E-06
  6.4072E-06
  6.4072E-06
  2.3919E-05
  2.3919E-05
  2.3919E-05
  2.3919E-05
  2.3919E-05
  2.3919E-05
  2.3919E-05
  2.3919E-05
  2.3919E-05
  8.9293E-05
  8.9293E-05
  8.9293E-05
  8.9293E-05
  8.9293E-05
  8.9293E-05
  8.9293E-05
  8.9293E-05
  8.9293E-05
  3.3334E-04
  3.3334E-04
  3.3334E-04
  3.3334E-04
  3.3334E-04
  3.3334E-04
  3.3334E-04
  3.3334E-04
  3.3334E-04
  1.2444E-03
  1.2444E-03
  1.2444E-03
  1.2444E-03
  1.2444E-03
  1.2444E-03
  1.2444E-03
  1.2444E-03
  1.2444E-03
  4.6456E-03
  4.6456E-03
  4.6456E-03
  4.6456E-03
  4.6456E-03
  4.6456E-03
  4.6456E-03
  4.6456E-03
  4.6456E-03
  1.7343E-02
  1.7343E-02
  1.7343E-02
  1.7343E-02
  1.7343E-02
  1.7343E-02
  1.7343E-02
  1.7343E-02
  1.7343E-02
  6.4743E-02
  6.4743E-02
  6.4743E-02
  6.4743E-02
  6.4743E-02
  6.4743E-02
  6.4743E-02
  6.4743E-02
  6.4743E-02
  2.4169E-01
  2.4169E-01
  2.4169E-01
  2.4169E-01
  2.4169E-01
  2.4169E-01
  2.4169E-01
  2.4169E-01
  2.4169E-01
  3.8126E-01
  3.8126E-01
  3.8126E-01
  3.8126E-01
  3.8126E-01
  3.8126E-01
  3.8126E-01
  3.8126E-01
  3.8126E-01
   1.4800E-02
  3.8201E-12
  3.8201E-12
  3.8201E-12
  3.8201E-12
  3.8201E-12
  3.8201E-12
  3.8201E-12
  3.8201E-12
  3.8201E-12
  1.1466E-11
  1.1466E-11
  1.1466E-11
  1.1466E-11
  1.1466E-11
  1.1466E-11
  1.1466E-11
  1.1466E-11
  1.1466E-11
  4.5879E-11
  4.5879E-11
  4.5879E-11
  4.5879E-11
  4.5879E-11
  4.5879E-11
  4.5879E-11
  4.5879E-11
  4.5879E-11
  1.7210E-10
  1.7210E-10
  1.7210E-10
  1.7210E-10
  1.7210E-10
  1.7210E-10
  1.7210E-10
  1.7210E-10
  1.7210E-10
  6.4269E-10
  6.4269E-10
  6.4269E-10
  6.4269E-10
  6.4269E-10
  6.4269E-10
  6.4269E-10
  6.4269E-10
  6.4269E-10
  2.3993E-09
  2.3993E-09
  2.3993E-09
  2.3993E-09
  2.3993E-09
  2.3993E-09
  2.3993E-09
  2.3993E-09
  2.3993E-09
  8.9570E-09
  8.9570E-09
  8.9570E-09
  8.9570E-09
  8.9570E-09
  8.9570E-09
  8.9570E-09
  8.9570E-09
  8.9570E-09
  3.3438E-08
  3.3438E-08
  3.3438E-08
  3.3438E-08
  3.3438E-08
  3.3438E-08
  3.3438E-08
  3.3438E-08
  3.3438E-08
  1.2483E-07
  1.2483E-07
  1.2483E-07
  1.2483E-07
  1.2483E-07
  1.2483E-07
  1.2483E-07
  1.2483E-07
  1.2483E-07
  4.6601E-07
  4.6601E-07
  4.6601E-07
  4.6601E-07
  4.6601E-07
  4.6601E-07
  4.6601E-07
  4.6601E-07
  4.6601E-07
  1.7397E-06
  1.7397E-06
  1.7397E-06
  1.7397E-06
  1.7397E-06
  1.7397E-06
  1.7397E-06
  1.7397E-06
  1.7397E-06
  6.4945E-06
  6.4945E-06
  6.4945E-06
  6.4945E-06
  6.4945E-06
  6.4945E-06
  6.4945E-06
  6.4945E-06
  6.4945E-06
  2.4245E-05
  2.4245E-05
  2.4245E-05
  2.4245E-05
  2.4245E-05
  2.4245E-05
  2.4245E-05
  2.4245E-05
  2.4245E-05
  9.0510E-05
  9.0510E-05
  9.0510E-05
  9.0510E-05
  9.0510E-05
  9.0510E-05
  9.0510E-05
  9.0510E-05
  9.0510E-05
  3.3789E-04
  3.3789E-04
  3.3789E-04
  3.3789E-04
  3.3789E-04
  3.3789E-04
  3.3789E-04
  3.3789E-04
  3.3789E-04
  1.2614E-03
  1.2614E-03
  1.2614E-03
  1.2614E-03
  1.2614E-03
  1.2614E-03
  1.2614E-03
  1.2614E-03
  1.2614E-03
  4.7090E-03
  4.7090E-03
  4.7090E-03
  4.7090E-03
  4.7090E-03
  4.7090E-03
  4.7090E-03
  4.7090E-03
  4.7090E-03
  1.7579E-02
  1.7579E-02
  1.7579E-02
  1.7579E-02
  1.7579E-02
  1.7579E-02
  1.7579E-02
  1.7579E-02
  1.7579E-02
  6.5626E-02
  6.5626E-02
  6.5626E-02
  6.5626E-02
  6.5626E-02
  6.5626E-02
  6.5626E-02
  6.5626E-02
  6.5626E-02
  2.4499E-01
  2.4499E-01
  2.4499E-01
  2.4499E-01
  2.4499E-01
  2.4499E-01
  2.4499E-01
  2.4499E-01
  2.4499E-01
  3.8646E-01
  3.8646E-01
  3.8646E-01
  3.8646E-01
  3.8646E-01
  3.8646E-01
  3.8646E-01
  3.8646E-01
  3.8646E-01
   1.4900E-02
  3.8716E-12
  3.8716E-12
  3.8716E-12
  3.8716E-12
  3.8716E-12
  3.8716E-12
  3.8716E-12
  3.8716E-12
  3.8716E-12
  1.1621E-11
  1.1621E-11
  1.1621E-11
  1.1621E-11
  1.1621E-11
  1.1621E-11
  1.1621E-11
  1.1621E-11
  1.1621E-11
  4.6498E-11
  4.6498E-11
  4.6498E-11
  4.6498E-11
  4.6498E-11
  4.6498E-11
  4.6498E-11
  4.6498E-11
  4.6498E-11
  1.7442E-10
  1.7442E-10
  1.7442E-10
  1.7442E-10
  1.7442E-10
  1.7442E-10
  1.7442E-10
  1.7442E-10
  1.7442E-10
  6.5136E-10
  6.5136E-10
  6.5136E-10
  6.5136E-10
  6.5136E-10
  6.5136E-10
  6.5136E-10
  6.5136E-10
  6.5136E-10
  2.4317E-09
  2.4317E-09
  2.4317E-09
  2.4317E-09
  2.4317E-09
  2.4317E-09
  2.4317E-09
  2.4317E-09
  2.4317E-09
  9.0780E-09
  9.0780E-09
  9.0780E-09
  9.0780E-09
  9.0780E-09
  9.0780E-09
  9.0780E-09
  9.0780E-09
  9.0780E-09
  3.3890E-08
  3.3890E-08
  3.3890E-08
  3.3890E-08
  3.3890E-08
  3.3890E-08
  3.3890E-08
  3.3890E-08
  3.3890E-08
  1.2652E-07
  1.2652E-07
  1.2652E-07
  1.2652E-07
  1.2652E-07
  1.2652E-07
  1.2652E-07
  1.2652E-07
  1.2652E-07
  4.7231E-07
  4.7231E-07
  4.7231E-07
  4.7231E-07
  4.7231E-07
  4.7231E-07
  4.7231E-07
  4.7231E-07
  4.7231E-07
  1.7632E-06
  1.7632E-06
  1.7632E-06
  1.7632E-06
  1.7632E-06
  1.7632E-06
  1.7632E-06
  1.7632E-06
  1.7632E-06
  6.5823E-06
  6.5823E-06
  6.5823E-06
  6.5823E-06
  6.5823E-06
  6.5823E-06
  6.5823E-06
  6.5823E-06
  6.5823E-06
  2.4573E-05
  2.4573E-05
  2.4573E-05
  2.4573E-05
  2.4573E-05
  2.4573E-05
  2.4573E-05
  2.4573E-05
  2.4573E-05
  9.1735E-05
  9.1735E-05
  9.1735E-05
  9.1735E-05
  9.1735E-05
  9.1735E-05
  9.1735E-05
  9.1735E-05
  9.1735E-05
  3.4246E-04
  3.4246E-04
  3.4246E-04
  3.4246E-04
  3.4246E-04
  3.4246E-04
  3.4246E-04
  3.4246E-04
  3.4246E-04
  1.2785E-03
  1.2785E-03
  1.2785E-03
  1.2785E-03
  1.2785E-03
  1.2785E-03
  1.2785E-03
  1.2785E-03
  1.2785E-03
  4.7727E-03
  4.7727E-03
  4.7727E-03
  4.7727E-03
  4.7727E-03
  4.7727E-03
  4.7727E-03
  4.7727E-03
  4.7727E-03
  1.7817E-02
  1.7817E-02
  1.7817E-02
  1.7817E-02
  1.7817E-02
  1.7817E-02
  1.7817E-02
  1.7817E-02
  1.7817E-02
  6.6515E-02
  6.6515E-02
  6.6515E-02
  6.6515E-02
  6.6515E-02
  6.6515E-02
  6.6515E-02
  6.6515E-02
  6.6515E-02
  2.4831E-01
  2.4831E-01
  2.4831E-01
  2.4831E-01
  2.4831E-01
  2.4831E-01
  2.4831E-01
  2.4831E-01
  2.4831E-01
  3.9170E-01
  3.9170E-01
  3.9170E-01
  3.9170E-01
  3.9170E-01
  3.9170E-01
  3.9170E-01
  3.9170E-01
  3.9170E-01
   1.5000E-02
  3.9234E-12
  3.9234E-12
  3.9234E-12
  3.9234E-12
  3.9234E-12
  3.9234E-12
  3.9234E-12
  3.9234E-12
  3.9234E-12
  1.1776E-11
  1.1776E-11
  1.1776E-11
  1.1776E-11
  1.1776E-11
  1.1776E-11
  1.1776E-11
  1.1776E-11
  1.1776E-11
  4.7121E-11
  4.7121E-11
  4.7121E-11
  4.7121E-11
  4.7121E-11
  4.7121E-11
  4.7121E-11
  4.7121E-11
  4.7121E-11
  1.7676E-10
  1.7676E-10
  1.7676E-10
  1.7676E-10
  1.7676E-10
  1.7676E-10
  1.7676E-10
  1.7676E-10
  1.7676E-10
  6.6009E-10
  6.6009E-10
  6.6009E-10
  6.6009E-10
  6.6009E-10
  6.6009E-10
  6.6009E-10
  6.6009E-10
  6.6009E-10
  2.4643E-09
  2.4643E-09
  2.4643E-09
  2.4643E-09
  2.4643E-09
  2.4643E-09
  2.4643E-09
  2.4643E-09
  2.4643E-09
  9.1997E-09
  9.1997E-09
  9.1997E-09
  9.1997E-09
  9.1997E-09
  9.1997E-09
  9.1997E-09
  9.1997E-09
  9.1997E-09
  3.4344E-08
  3.4344E-08
  3.4344E-08
  3.4344E-08
  3.4344E-08
  3.4344E-08
  3.4344E-08
  3.4344E-08
  3.4344E-08
  1.2821E-07
  1.2821E-07
  1.2821E-07
  1.2821E-07
  1.2821E-07
  1.2821E-07
  1.2821E-07
  1.2821E-07
  1.2821E-07
  4.7865E-07
  4.7865E-07
  4.7865E-07
  4.7865E-07
  4.7865E-07
  4.7865E-07
  4.7865E-07
  4.7865E-07
  4.7865E-07
  1.7869E-06
  1.7869E-06
  1.7869E-06
  1.7869E-06
  1.7869E-06
  1.7869E-06
  1.7869E-06
  1.7869E-06
  1.7869E-06
  6.6707E-06
  6.6707E-06
  6.6707E-06
  6.6707E-06
  6.6707E-06
  6.6707E-06
  6.6707E-06
  6.6707E-06
  6.6707E-06
  2.4903E-05
  2.4903E-05
  2.4903E-05
  2.4903E-05
  2.4903E-05
  2.4903E-05
  2.4903E-05
  2.4903E-05
  2.4903E-05
  9.2968E-05
  9.2968E-05
  9.2968E-05
  9.2968E-05
  9.2968E-05
  9.2968E-05
  9.2968E-05
  9.2968E-05
  9.2968E-05
  3.4707E-04
  3.4707E-04
  3.4707E-04
  3.4707E-04
  3.4707E-04
  3.4707E-04
  3.4707E-04
  3.4707E-04
  3.4707E-04
  1.2957E-03
  1.2957E-03
  1.2957E-03
  1.2957E-03
  1.2957E-03
  1.2957E-03
  1.2957E-03
  1.2957E-03
  1.2957E-03
  4.8369E-03
  4.8369E-03
  4.8369E-03
  4.8369E-03
  4.8369E-03
  4.8369E-03
  4.8369E-03
  4.8369E-03
  4.8369E-03
  1.8057E-02
  1.8057E-02
  1.8057E-02
  1.8057E-02
  1.8057E-02
  1.8057E-02
  1.8057E-02
  1.8057E-02
  1.8057E-02
  6.7411E-02
  6.7411E-02
  6.7411E-02
  6.7411E-02
  6.7411E-02
  6.7411E-02
  6.7411E-02
  6.7411E-02
  6.7411E-02
  2.5166E-01
  2.5166E-01
  2.5166E-01
  2.5166E-01
  2.5166E-01
  2.5166E-01
  2.5166E-01
  2.5166E-01
  2.5166E-01
  3.9698E-01
  3.9698E-01
  3.9698E-01
  3.9698E-01
  3.9698E-01
  3.9698E-01
  3.9698E-01
  3.9698E-01
  3.9698E-01
   1.5100E-02
  3.9755E-12
  3.9755E-12
  3.9755E-12
  3.9755E-12
  3.9755E-12
  3.9755E-12
  3.9755E-12
  3.9755E-12
  3.9755E-12
  1.1933E-11
  1.1933E-11
  1.1933E-11
  1.1933E-11
  1.1933E-11
  1.1933E-11
  1.1933E-11
  1.1933E-11
  1.1933E-11
  4.7748E-11
  4.7748E-11
  4.7748E-11
  4.7748E-11
  4.7748E-11
  4.7748E-11
  4.7748E-11
  4.7748E-11
  4.7748E-11
  1.7911E-10
  1.7911E-10
  1.7911E-10
  1.7911E-10
  1.7911E-10
  1.7911E-10
  1.7911E-10
  1.7911E-10
  1.7911E-10
  6.6888E-10
  6.6888E-10
  6.6888E-10
  6.6888E-10
  6.6888E-10
  6.6888E-10
  6.6888E-10
  6.6888E-10
  6.6888E-10
  2.4971E-09
  2.4971E-09
  2.4971E-09
  2.4971E-09
  2.4971E-09
  2.4971E-09
  2.4971E-09
  2.4971E-09
  2.4971E-09
  9.3223E-09
  9.3223E-09
  9.3223E-09
  9.3223E-09
  9.3223E-09
  9.3223E-09
  9.3223E-09
  9.3223E-09
  9.3223E-09
  3.4802E-08
  3.4802E-08
  3.4802E-08
  3.4802E-08
  3.4802E-08
  3.4802E-08
  3.4802E-08
  3.4802E-08
  3.4802E-08
  1.2992E-07
  1.2992E-07
  1.2992E-07
  1.2992E-07
  1.2992E-07
  1.2992E-07
  1.2992E-07
  1.2992E-07
  1.2992E-07
  4.8503E-07
  4.8503E-07
  4.8503E-07
  4.8503E-07
  4.8503E-07
  4.8503E-07
  4.8503E-07
  4.8503E-07
  4.8503E-07
  1.8107E-06
  1.8107E-06
  1.8107E-06
  1.8107E-06
  1.8107E-06
  1.8107E-06
  1.8107E-06
  1.8107E-06
  1.8107E-06
  6.7597E-06
  6.7597E-06
  6.7597E-06
  6.7597E-06
  6.7597E-06
  6.7597E-06
  6.7597E-06
  6.7597E-06
  6.7597E-06
  2.5235E-05
  2.5235E-05
  2.5235E-05
  2.5235E-05
  2.5235E-05
  2.5235E-05
  2.5235E-05
  2.5235E-05
  2.5235E-05
  9.4209E-05
  9.4209E-05
  9.4209E-05
  9.4209E-05
  9.4209E-05
  9.4209E-05
  9.4209E-05
  9.4209E-05
  9.4209E-05
  3.5170E-04
  3.5170E-04
  3.5170E-04
  3.5170E-04
  3.5170E-04
  3.5170E-04
  3.5170E-04
  3.5170E-04
  3.5170E-04
  1.3130E-03
  1.3130E-03
  1.3130E-03
  1.3130E-03
  1.3130E-03
  1.3130E-03
  1.3130E-03
  1.3130E-03
  1.3130E-03
  4.9016E-03
  4.9016E-03
  4.9016E-03
  4.9016E-03
  4.9016E-03
  4.9016E-03
  4.9016E-03
  4.9016E-03
  4.9016E-03
  1.8299E-02
  1.8299E-02
  1.8299E-02
  1.8299E-02
  1.8299E-02
  1.8299E-02
  1.8299E-02
  1.8299E-02
  1.8299E-02
  6.8312E-02
  6.8312E-02
  6.8312E-02
  6.8312E-02
  6.8312E-02
  6.8312E-02
  6.8312E-02
  6.8312E-02
  6.8312E-02
  2.5502E-01
  2.5502E-01
  2.5502E-01
  2.5502E-01
  2.5502E-01
  2.5502E-01
  2.5502E-01
  2.5502E-01
  2.5502E-01
  4.0229E-01
  4.0229E-01
  4.0229E-01
  4.0229E-01
  4.0229E-01
  4.0229E-01
  4.0229E-01
  4.0229E-01
  4.0229E-01
   1.5200E-02
  4.0280E-12
  4.0280E-12
  4.0280E-12
  4.0280E-12
  4.0280E-12
  4.0280E-12
  4.0280E-12
  4.0280E-12
  4.0280E-12
  1.2090E-11
  1.2090E-11
  1.2090E-11
  1.2090E-11
  1.2090E-11
  1.2090E-11
  1.2090E-11
  1.2090E-11
  1.2090E-11
  4.8379E-11
  4.8379E-11
  4.8379E-11
  4.8379E-11
  4.8379E-11
  4.8379E-11
  4.8379E-11
  4.8379E-11
  4.8379E-11
  1.8148E-10
  1.8148E-10
  1.8148E-10
  1.8148E-10
  1.8148E-10
  1.8148E-10
  1.8148E-10
  1.8148E-10
  1.8148E-10
  6.7772E-10
  6.7772E-10
  6.7772E-10
  6.7772E-10
  6.7772E-10
  6.7772E-10
  6.7772E-10
  6.7772E-10
  6.7772E-10
  2.5302E-09
  2.5302E-09
  2.5302E-09
  2.5302E-09
  2.5302E-09
  2.5302E-09
  2.5302E-09
  2.5302E-09
  2.5302E-09
  9.4456E-09
  9.4456E-09
  9.4456E-09
  9.4456E-09
  9.4456E-09
  9.4456E-09
  9.4456E-09
  9.4456E-09
  9.4456E-09
  3.5263E-08
  3.5263E-08
  3.5263E-08
  3.5263E-08
  3.5263E-08
  3.5263E-08
  3.5263E-08
  3.5263E-08
  3.5263E-08
  1.3164E-07
  1.3164E-07
  1.3164E-07
  1.3164E-07
  1.3164E-07
  1.3164E-07
  1.3164E-07
  1.3164E-07
  1.3164E-07
  4.9145E-07
  4.9145E-07
  4.9145E-07
  4.9145E-07
  4.9145E-07
  4.9145E-07
  4.9145E-07
  4.9145E-07
  4.9145E-07
  1.8347E-06
  1.8347E-06
  1.8347E-06
  1.8347E-06
  1.8347E-06
  1.8347E-06
  1.8347E-06
  1.8347E-06
  1.8347E-06
  6.8493E-06
  6.8493E-06
  6.8493E-06
  6.8493E-06
  6.8493E-06
  6.8493E-06
  6.8493E-06
  6.8493E-06
  6.8493E-06
  2.5570E-05
  2.5570E-05
  2.5570E-05
  2.5570E-05
  2.5570E-05
  2.5570E-05
  2.5570E-05
  2.5570E-05
  2.5570E-05
  9.5458E-05
  9.5458E-05
  9.5458E-05
  9.5458E-05
  9.5458E-05
  9.5458E-05
  9.5458E-05
  9.5458E-05
  9.5458E-05
  3.5637E-04
  3.5637E-04
  3.5637E-04
  3.5637E-04
  3.5637E-04
  3.5637E-04
  3.5637E-04
  3.5637E-04
  3.5637E-04
  1.3304E-03
  1.3304E-03
  1.3304E-03
  1.3304E-03
  1.3304E-03
  1.3304E-03
  1.3304E-03
  1.3304E-03
  1.3304E-03
  4.9666E-03
  4.9666E-03
  4.9666E-03
  4.9666E-03
  4.9666E-03
  4.9666E-03
  4.9666E-03
  4.9666E-03
  4.9666E-03
  1.8541E-02
  1.8541E-02
  1.8541E-02
  1.8541E-02
  1.8541E-02
  1.8541E-02
  1.8541E-02
  1.8541E-02
  1.8541E-02
  6.9219E-02
  6.9219E-02
  6.9219E-02
  6.9219E-02
  6.9219E-02
  6.9219E-02
  6.9219E-02
  6.9219E-02
  6.9219E-02
  2.5841E-01
  2.5841E-01
  2.5841E-01
  2.5841E-01
  2.5841E-01
  2.5841E-01
  2.5841E-01
  2.5841E-01
  2.5841E-01
  4.0763E-01
  4.0763E-01
  4.0763E-01
  4.0763E-01
  4.0763E-01
  4.0763E-01
  4.0763E-01
  4.0763E-01
  4.0763E-01
   1.5300E-02
  4.0808E-12
  4.0808E-12
  4.0808E-12
  4.0808E-12
  4.0808E-12
  4.0808E-12
  4.0808E-12
  4.0808E-12
  4.0808E-12
  1.2249E-11
  1.2249E-11
  1.2249E-11
  1.2249E-11
  1.2249E-11
  1.2249E-11
  1.2249E-11
  1.2249E-11
  1.2249E-11
  4.9014E-11
  4.9014E-11
  4.9014E-11
  4.9014E-11
  4.9014E-11
  4.9014E-11
  4.9014E-11
  4.9014E-11
  4.9014E-11
  1.8386E-10
  1.8386E-10
  1.8386E-10
  1.8386E-10
  1.8386E-10
  1.8386E-10
  1.8386E-10
  1.8386E-10
  1.8386E-10
  6.8663E-10
  6.8663E-10
  6.8663E-10
  6.8663E-10
  6.8663E-10
  6.8663E-10
  6.8663E-10
  6.8663E-10
  6.8663E-10
  2.5634E-09
  2.5634E-09
  2.5634E-09
  2.5634E-09
  2.5634E-09
  2.5634E-09
  2.5634E-09
  2.5634E-09
  2.5634E-09
  9.5698E-09
  9.5698E-09
  9.5698E-09
  9.5698E-09
  9.5698E-09
  9.5698E-09
  9.5698E-09
  9.5698E-09
  9.5698E-09
  3.5726E-08
  3.5726E-08
  3.5726E-08
  3.5726E-08
  3.5726E-08
  3.5726E-08
  3.5726E-08
  3.5726E-08
  3.5726E-08
  1.3337E-07
  1.3337E-07
  1.3337E-07
  1.3337E-07
  1.3337E-07
  1.3337E-07
  1.3337E-07
  1.3337E-07
  1.3337E-07
  4.9792E-07
  4.9792E-07
  4.9792E-07
  4.9792E-07
  4.9792E-07
  4.9792E-07
  4.9792E-07
  4.9792E-07
  4.9792E-07
  1.8588E-06
  1.8588E-06
  1.8588E-06
  1.8588E-06
  1.8588E-06
  1.8588E-06
  1.8588E-06
  1.8588E-06
  1.8588E-06
  6.9395E-06
  6.9395E-06
  6.9395E-06
  6.9395E-06
  6.9395E-06
  6.9395E-06
  6.9395E-06
  6.9395E-06
  6.9395E-06
  2.5907E-05
  2.5907E-05
  2.5907E-05
  2.5907E-05
  2.5907E-05
  2.5907E-05
  2.5907E-05
  2.5907E-05
  2.5907E-05
  9.6715E-05
  9.6715E-05
  9.6715E-05
  9.6715E-05
  9.6715E-05
  9.6715E-05
  9.6715E-05
  9.6715E-05
  9.6715E-05
  3.6106E-04
  3.6106E-04
  3.6106E-04
  3.6106E-04
  3.6106E-04
  3.6106E-04
  3.6106E-04
  3.6106E-04
  3.6106E-04
  1.3479E-03
  1.3479E-03
  1.3479E-03
  1.3479E-03
  1.3479E-03
  1.3479E-03
  1.3479E-03
  1.3479E-03
  1.3479E-03
  5.0321E-03
  5.0321E-03
  5.0321E-03
  5.0321E-03
  5.0321E-03
  5.0321E-03
  5.0321E-03
  5.0321E-03
  5.0321E-03
  1.8786E-02
  1.8786E-02
  1.8786E-02
  1.8786E-02
  1.8786E-02
  1.8786E-02
  1.8786E-02
  1.8786E-02
  1.8786E-02
  7.0132E-02
  7.0132E-02
  7.0132E-02
  7.0132E-02
  7.0132E-02
  7.0132E-02
  7.0132E-02
  7.0132E-02
  7.0132E-02
  2.6182E-01
  2.6182E-01
  2.6182E-01
  2.6182E-01
  2.6182E-01
  2.6182E-01
  2.6182E-01
  2.6182E-01
  2.6182E-01
  4.1301E-01
  4.1301E-01
  4.1301E-01
  4.1301E-01
  4.1301E-01
  4.1301E-01
  4.1301E-01
  4.1301E-01
  4.1301E-01
   1.5400E-02
  4.1340E-12
  4.1340E-12
  4.1340E-12
  4.1340E-12
  4.1340E-12
  4.1340E-12
  4.1340E-12
  4.1340E-12
  4.1340E-12
  1.2409E-11
  1.2409E-11
  1.2409E-11
  1.2409E-11
  1.2409E-11
  1.2409E-11
  1.2409E-11
  1.2409E-11
  1.2409E-11
  4.9653E-11
  4.9653E-11
  4.9653E-11
  4.9653E-11
  4.9653E-11
  4.9653E-11
  4.9653E-11
  4.9653E-11
  4.9653E-11
  1.8626E-10
  1.8626E-10
  1.8626E-10
  1.8626E-10
  1.8626E-10
  1.8626E-10
  1.8626E-10
  1.8626E-10
  1.8626E-10
  6.9558E-10
  6.9558E-10
  6.9558E-10
  6.9558E-10
  6.9558E-10
  6.9558E-10
  6.9558E-10
  6.9558E-10
  6.9558E-10
  2.5969E-09
  2.5969E-09
  2.5969E-09
  2.5969E-09
  2.5969E-09
  2.5969E-09
  2.5969E-09
  2.5969E-09
  2.5969E-09
  9.6947E-09
  9.6947E-09
  9.6947E-09
  9.6947E-09
  9.6947E-09
  9.6947E-09
  9.6947E-09
  9.6947E-09
  9.6947E-09
  3.6193E-08
  3.6193E-08
  3.6193E-08
  3.6193E-08
  3.6193E-08
  3.6193E-08
  3.6193E-08
  3.6193E-08
  3.6193E-08
  1.3512E-07
  1.3512E-07
  1.3512E-07
  1.3512E-07
  1.3512E-07
  1.3512E-07
  1.3512E-07
  1.3512E-07
  1.3512E-07
  5.0442E-07
  5.0442E-07
  5.0442E-07
  5.0442E-07
  5.0442E-07
  5.0442E-07
  5.0442E-07
  5.0442E-07
  5.0442E-07
  1.8831E-06
  1.8831E-06
  1.8831E-06
  1.8831E-06
  1.8831E-06
  1.8831E-06
  1.8831E-06
  1.8831E-06
  1.8831E-06
  7.0302E-06
  7.0302E-06
  7.0302E-06
  7.0302E-06
  7.0302E-06
  7.0302E-06
  7.0302E-06
  7.0302E-06
  7.0302E-06
  2.6246E-05
  2.6246E-05
  2.6246E-05
  2.6246E-05
  2.6246E-05
  2.6246E-05
  2.6246E-05
  2.6246E-05
  2.6246E-05
  9.7981E-05
  9.7981E-05
  9.7981E-05
  9.7981E-05
  9.7981E-05
  9.7981E-05
  9.7981E-05
  9.7981E-05
  9.7981E-05
  3.6579E-04
  3.6579E-04
  3.6579E-04
  3.6579E-04
  3.6579E-04
  3.6579E-04
  3.6579E-04
  3.6579E-04
  3.6579E-04
  1.3656E-03
  1.3656E-03
  1.3656E-03
  1.3656E-03
  1.3656E-03
  1.3656E-03
  1.3656E-03
  1.3656E-03
  1.3656E-03
  5.0980E-03
  5.0980E-03
  5.0980E-03
  5.0980E-03
  5.0980E-03
  5.0980E-03
  5.0980E-03
  5.0980E-03
  5.0980E-03
  1.9032E-02
  1.9032E-02
  1.9032E-02
  1.9032E-02
  1.9032E-02
  1.9032E-02
  1.9032E-02
  1.9032E-02
  1.9032E-02
  7.1052E-02
  7.1052E-02
  7.1052E-02
  7.1052E-02
  7.1052E-02
  7.1052E-02
  7.1052E-02
  7.1052E-02
  7.1052E-02
  2.6525E-01
  2.6525E-01
  2.6525E-01
  2.6525E-01
  2.6525E-01
  2.6525E-01
  2.6525E-01
  2.6525E-01
  2.6525E-01
  4.1843E-01
  4.1843E-01
  4.1843E-01
  4.1843E-01
  4.1843E-01
  4.1843E-01
  4.1843E-01
  4.1843E-01
  4.1843E-01
   1.5500E-02
  4.1875E-12
  4.1875E-12
  4.1875E-12
  4.1875E-12
  4.1875E-12
  4.1875E-12
  4.1875E-12
  4.1875E-12
  4.1875E-12
  1.2569E-11
  1.2569E-11
  1.2569E-11
  1.2569E-11
  1.2569E-11
  1.2569E-11
  1.2569E-11
  1.2569E-11
  1.2569E-11
  5.0296E-11
  5.0296E-11
  5.0296E-11
  5.0296E-11
  5.0296E-11
  5.0296E-11
  5.0296E-11
  5.0296E-11
  5.0296E-11
  1.8867E-10
  1.8867E-10
  1.8867E-10
  1.8867E-10
  1.8867E-10
  1.8867E-10
  1.8867E-10
  1.8867E-10
  1.8867E-10
  7.0460E-10
  7.0460E-10
  7.0460E-10
  7.0460E-10
  7.0460E-10
  7.0460E-10
  7.0460E-10
  7.0460E-10
  7.0460E-10
  2.6305E-09
  2.6305E-09
  2.6305E-09
  2.6305E-09
  2.6305E-09
  2.6305E-09
  2.6305E-09
  2.6305E-09
  2.6305E-09
  9.8205E-09
  9.8205E-09
  9.8205E-09
  9.8205E-09
  9.8205E-09
  9.8205E-09
  9.8205E-09
  9.8205E-09
  9.8205E-09
  3.6662E-08
  3.6662E-08
  3.6662E-08
  3.6662E-08
  3.6662E-08
  3.6662E-08
  3.6662E-08
  3.6662E-08
  3.6662E-08
  1.3687E-07
  1.3687E-07
  1.3687E-07
  1.3687E-07
  1.3687E-07
  1.3687E-07
  1.3687E-07
  1.3687E-07
  1.3687E-07
  5.1097E-07
  5.1097E-07
  5.1097E-07
  5.1097E-07
  5.1097E-07
  5.1097E-07
  5.1097E-07
  5.1097E-07
  5.1097E-07
  1.9076E-06
  1.9076E-06
  1.9076E-06
  1.9076E-06
  1.9076E-06
  1.9076E-06
  1.9076E-06
  1.9076E-06
  1.9076E-06
  7.1216E-06
  7.1216E-06
  7.1216E-06
  7.1216E-06
  7.1216E-06
  7.1216E-06
  7.1216E-06
  7.1216E-06
  7.1216E-06
  2.6587E-05
  2.6587E-05
  2.6587E-05
  2.6587E-05
  2.6587E-05
  2.6587E-05
  2.6587E-05
  2.6587E-05
  2.6587E-05
  9.9255E-05
  9.9255E-05
  9.9255E-05
  9.9255E-05
  9.9255E-05
  9.9255E-05
  9.9255E-05
  9.9255E-05
  9.9255E-05
  3.7054E-04
  3.7054E-04
  3.7054E-04
  3.7054E-04
  3.7054E-04
  3.7054E-04
  3.7054E-04
  3.7054E-04
  3.7054E-04
  1.3833E-03
  1.3833E-03
  1.3833E-03
  1.3833E-03
  1.3833E-03
  1.3833E-03
  1.3833E-03
  1.3833E-03
  1.3833E-03
  5.1644E-03
  5.1644E-03
  5.1644E-03
  5.1644E-03
  5.1644E-03
  5.1644E-03
  5.1644E-03
  5.1644E-03
  5.1644E-03
  1.9280E-02
  1.9280E-02
  1.9280E-02
  1.9280E-02
  1.9280E-02
  1.9280E-02
  1.9280E-02
  1.9280E-02
  1.9280E-02
  7.1977E-02
  7.1977E-02
  7.1977E-02
  7.1977E-02
  7.1977E-02
  7.1977E-02
  7.1977E-02
  7.1977E-02
  7.1977E-02
  2.6871E-01
  2.6871E-01
  2.6871E-01
  2.6871E-01
  2.6871E-01
  2.6871E-01
  2.6871E-01
  2.6871E-01
  2.6871E-01
  4.2388E-01
  4.2388E-01
  4.2388E-01
  4.2388E-01
  4.2388E-01
  4.2388E-01
  4.2388E-01
  4.2388E-01
  4.2388E-01
   1.5600E-02
  4.2414E-12
  4.2414E-12
  4.2414E-12
  4.2414E-12
  4.2414E-12
  4.2414E-12
  4.2414E-12
  4.2414E-12
  4.2414E-12
  1.2731E-11
  1.2731E-11
  1.2731E-11
  1.2731E-11
  1.2731E-11
  1.2731E-11
  1.2731E-11
  1.2731E-11
  1.2731E-11
  5.0943E-11
  5.0943E-11
  5.0943E-11
  5.0943E-11
  5.0943E-11
  5.0943E-11
  5.0943E-11
  5.0943E-11
  5.0943E-11
  1.9110E-10
  1.9110E-10
  1.9110E-10
  1.9110E-10
  1.9110E-10
  1.9110E-10
  1.9110E-10
  1.9110E-10
  1.9110E-10
  7.1367E-10
  7.1367E-10
  7.1367E-10
  7.1367E-10
  7.1367E-10
  7.1367E-10
  7.1367E-10
  7.1367E-10
  7.1367E-10
  2.6644E-09
  2.6644E-09
  2.6644E-09
  2.6644E-09
  2.6644E-09
  2.6644E-09
  2.6644E-09
  2.6644E-09
  2.6644E-09
  9.9470E-09
  9.9470E-09
  9.9470E-09
  9.9470E-09
  9.9470E-09
  9.9470E-09
  9.9470E-09
  9.9470E-09
  9.9470E-09
  3.7135E-08
  3.7135E-08
  3.7135E-08
  3.7135E-08
  3.7135E-08
  3.7135E-08
  3.7135E-08
  3.7135E-08
  3.7135E-08
  1.3864E-07
  1.3864E-07
  1.3864E-07
  1.3864E-07
  1.3864E-07
  1.3864E-07
  1.3864E-07
  1.3864E-07
  1.3864E-07
  5.1756E-07
  5.1756E-07
  5.1756E-07
  5.1756E-07
  5.1756E-07
  5.1756E-07
  5.1756E-07
  5.1756E-07
  5.1756E-07
  1.9322E-06
  1.9322E-06
  1.9322E-06
  1.9322E-06
  1.9322E-06
  1.9322E-06
  1.9322E-06
  1.9322E-06
  1.9322E-06
  7.2135E-06
  7.2135E-06
  7.2135E-06
  7.2135E-06
  7.2135E-06
  7.2135E-06
  7.2135E-06
  7.2135E-06
  7.2135E-06
  2.6930E-05
  2.6930E-05
  2.6930E-05
  2.6930E-05
  2.6930E-05
  2.6930E-05
  2.6930E-05
  2.6930E-05
  2.6930E-05
  1.0054E-04
  1.0054E-04
  1.0054E-04
  1.0054E-04
  1.0054E-04
  1.0054E-04
  1.0054E-04
  1.0054E-04
  1.0054E-04
  3.7533E-04
  3.7533E-04
  3.7533E-04
  3.7533E-04
  3.7533E-04
  3.7533E-04
  3.7533E-04
  3.7533E-04
  3.7533E-04
  1.4012E-03
  1.4012E-03
  1.4012E-03
  1.4012E-03
  1.4012E-03
  1.4012E-03
  1.4012E-03
  1.4012E-03
  1.4012E-03
  5.2311E-03
  5.2311E-03
  5.2311E-03
  5.2311E-03
  5.2311E-03
  5.2311E-03
  5.2311E-03
  5.2311E-03
  5.2311E-03
  1.9529E-02
  1.9529E-02
  1.9529E-02
  1.9529E-02
  1.9529E-02
  1.9529E-02
  1.9529E-02
  1.9529E-02
  1.9529E-02
  7.2908E-02
  7.2908E-02
  7.2908E-02
  7.2908E-02
  7.2908E-02
  7.2908E-02
  7.2908E-02
  7.2908E-02
  7.2908E-02
  2.7219E-01
  2.7219E-01
  2.7219E-01
  2.7219E-01
  2.7219E-01
  2.7219E-01
  2.7219E-01
  2.7219E-01
  2.7219E-01
  4.2936E-01
  4.2936E-01
  4.2936E-01
  4.2936E-01
  4.2936E-01
  4.2936E-01
  4.2936E-01
  4.2936E-01
  4.2936E-01
   1.5700E-02
  4.2955E-12
  4.2955E-12
  4.2955E-12
  4.2955E-12
  4.2955E-12
  4.2955E-12
  4.2955E-12
  4.2955E-12
  4.2955E-12
  1.2894E-11
  1.2894E-11
  1.2894E-11
  1.2894E-11
  1.2894E-11
  1.2894E-11
  1.2894E-11
  1.2894E-11
  1.2894E-11
  5.1595E-11
  5.1595E-11
  5.1595E-11
  5.1595E-11
  5.1595E-11
  5.1595E-11
  5.1595E-11
  5.1595E-11
  5.1595E-11
  1.9354E-10
  1.9354E-10
  1.9354E-10
  1.9354E-10
  1.9354E-10
  1.9354E-10
  1.9354E-10
  1.9354E-10
  1.9354E-10
  7.2280E-10
  7.2280E-10
  7.2280E-10
  7.2280E-10
  7.2280E-10
  7.2280E-10
  7.2280E-10
  7.2280E-10
  7.2280E-10
  2.6985E-09
  2.6985E-09
  2.6985E-09
  2.6985E-09
  2.6985E-09
  2.6985E-09
  2.6985E-09
  2.6985E-09
  2.6985E-09
  1.0074E-08
  1.0074E-08
  1.0074E-08
  1.0074E-08
  1.0074E-08
  1.0074E-08
  1.0074E-08
  1.0074E-08
  1.0074E-08
  3.7611E-08
  3.7611E-08
  3.7611E-08
  3.7611E-08
  3.7611E-08
  3.7611E-08
  3.7611E-08
  3.7611E-08
  3.7611E-08
  1.4041E-07
  1.4041E-07
  1.4041E-07
  1.4041E-07
  1.4041E-07
  1.4041E-07
  1.4041E-07
  1.4041E-07
  1.4041E-07
  5.2420E-07
  5.2420E-07
  5.2420E-07
  5.2420E-07
  5.2420E-07
  5.2420E-07
  5.2420E-07
  5.2420E-07
  5.2420E-07
  1.9570E-06
  1.9570E-06
  1.9570E-06
  1.9570E-06
  1.9570E-06
  1.9570E-06
  1.9570E-06
  1.9570E-06
  1.9570E-06
  7.3060E-06
  7.3060E-06
  7.3060E-06
  7.3060E-06
  7.3060E-06
  7.3060E-06
  7.3060E-06
  7.3060E-06
  7.3060E-06
  2.7275E-05
  2.7275E-05
  2.7275E-05
  2.7275E-05
  2.7275E-05
  2.7275E-05
  2.7275E-05
  2.7275E-05
  2.7275E-05
  1.0183E-04
  1.0183E-04
  1.0183E-04
  1.0183E-04
  1.0183E-04
  1.0183E-04
  1.0183E-04
  1.0183E-04
  1.0183E-04
  3.8015E-04
  3.8015E-04
  3.8015E-04
  3.8015E-04
  3.8015E-04
  3.8015E-04
  3.8015E-04
  3.8015E-04
  3.8015E-04
  1.4192E-03
  1.4192E-03
  1.4192E-03
  1.4192E-03
  1.4192E-03
  1.4192E-03
  1.4192E-03
  1.4192E-03
  1.4192E-03
  5.2983E-03
  5.2983E-03
  5.2983E-03
  5.2983E-03
  5.2983E-03
  5.2983E-03
  5.2983E-03
  5.2983E-03
  5.2983E-03
  1.9780E-02
  1.9780E-02
  1.9780E-02
  1.9780E-02
  1.9780E-02
  1.9780E-02
  1.9780E-02
  1.9780E-02
  1.9780E-02
  7.3845E-02
  7.3845E-02
  7.3845E-02
  7.3845E-02
  7.3845E-02
  7.3845E-02
  7.3845E-02
  7.3845E-02
  7.3845E-02
  2.7569E-01
  2.7569E-01
  2.7569E-01
  2.7569E-01
  2.7569E-01
  2.7569E-01
  2.7569E-01
  2.7569E-01
  2.7569E-01
  4.3488E-01
  4.3488E-01
  4.3488E-01
  4.3488E-01
  4.3488E-01
  4.3488E-01
  4.3488E-01
  4.3488E-01
  4.3488E-01
   1.5800E-02
  4.3500E-12
  4.3500E-12
  4.3500E-12
  4.3500E-12
  4.3500E-12
  4.3500E-12
  4.3500E-12
  4.3500E-12
  4.3500E-12
  1.3057E-11
  1.3057E-11
  1.3057E-11
  1.3057E-11
  1.3057E-11
  1.3057E-11
  1.3057E-11
  1.3057E-11
  1.3057E-11
  5.2250E-11
  5.2250E-11
  5.2250E-11
  5.2250E-11
  5.2250E-11
  5.2250E-11
  5.2250E-11
  5.2250E-11
  5.2250E-11
  1.9600E-10
  1.9600E-10
  1.9600E-10
  1.9600E-10
  1.9600E-10
  1.9600E-10
  1.9600E-10
  1.9600E-10
  1.9600E-10
  7.3199E-10
  7.3199E-10
  7.3199E-10
  7.3199E-10
  7.3199E-10
  7.3199E-10
  7.3199E-10
  7.3199E-10
  7.3199E-10
  2.7328E-09
  2.7328E-09
  2.7328E-09
  2.7328E-09
  2.7328E-09
  2.7328E-09
  2.7328E-09
  2.7328E-09
  2.7328E-09
  1.0202E-08
  1.0202E-08
  1.0202E-08
  1.0202E-08
  1.0202E-08
  1.0202E-08
  1.0202E-08
  1.0202E-08
  1.0202E-08
  3.8089E-08
  3.8089E-08
  3.8089E-08
  3.8089E-08
  3.8089E-08
  3.8089E-08
  3.8089E-08
  3.8089E-08
  3.8089E-08
  1.4220E-07
  1.4220E-07
  1.4220E-07
  1.4220E-07
  1.4220E-07
  1.4220E-07
  1.4220E-07
  1.4220E-07
  1.4220E-07
  5.3087E-07
  5.3087E-07
  5.3087E-07
  5.3087E-07
  5.3087E-07
  5.3087E-07
  5.3087E-07
  5.3087E-07
  5.3087E-07
  1.9819E-06
  1.9819E-06
  1.9819E-06
  1.9819E-06
  1.9819E-06
  1.9819E-06
  1.9819E-06
  1.9819E-06
  1.9819E-06
  7.3991E-06
  7.3991E-06
  7.3991E-06
  7.3991E-06
  7.3991E-06
  7.3991E-06
  7.3991E-06
  7.3991E-06
  7.3991E-06
  2.7623E-05
  2.7623E-05
  2.7623E-05
  2.7623E-05
  2.7623E-05
  2.7623E-05
  2.7623E-05
  2.7623E-05
  2.7623E-05
  1.0313E-04
  1.0313E-04
  1.0313E-04
  1.0313E-04
  1.0313E-04
  1.0313E-04
  1.0313E-04
  1.0313E-04
  1.0313E-04
  3.8500E-04
  3.8500E-04
  3.8500E-04
  3.8500E-04
  3.8500E-04
  3.8500E-04
  3.8500E-04
  3.8500E-04
  3.8500E-04
  1.4373E-03
  1.4373E-03
  1.4373E-03
  1.4373E-03
  1.4373E-03
  1.4373E-03
  1.4373E-03
  1.4373E-03
  1.4373E-03
  5.3659E-03
  5.3659E-03
  5.3659E-03
  5.3659E-03
  5.3659E-03
  5.3659E-03
  5.3659E-03
  5.3659E-03
  5.3659E-03
  2.0033E-02
  2.0033E-02
  2.0033E-02
  2.0033E-02
  2.0033E-02
  2.0033E-02
  2.0033E-02
  2.0033E-02
  2.0033E-02
  7.4788E-02
  7.4788E-02
  7.4788E-02
  7.4788E-02
  7.4788E-02
  7.4788E-02
  7.4788E-02
  7.4788E-02
  7.4788E-02
  2.7921E-01
  2.7921E-01
  2.7921E-01
  2.7921E-01
  2.7921E-01
  2.7921E-01
  2.7921E-01
  2.7921E-01
  2.7921E-01
  4.4044E-01
  4.4044E-01
  4.4044E-01
  4.4044E-01
  4.4044E-01
  4.4044E-01
  4.4044E-01
  4.4044E-01
  4.4044E-01
   1.5900E-02
  4.4049E-12
  4.4049E-12
  4.4049E-12
  4.4049E-12
  4.4049E-12
  4.4049E-12
  4.4049E-12
  4.4049E-12
  4.4049E-12
  1.3222E-11
  1.3222E-11
  1.3222E-11
  1.3222E-11
  1.3222E-11
  1.3222E-11
  1.3222E-11
  1.3222E-11
  1.3222E-11
  5.2909E-11
  5.2909E-11
  5.2909E-11
  5.2909E-11
  5.2909E-11
  5.2909E-11
  5.2909E-11
  5.2909E-11
  5.2909E-11
  1.9848E-10
  1.9848E-10
  1.9848E-10
  1.9848E-10
  1.9848E-10
  1.9848E-10
  1.9848E-10
  1.9848E-10
  1.9848E-10
  7.4124E-10
  7.4124E-10
  7.4124E-10
  7.4124E-10
  7.4124E-10
  7.4124E-10
  7.4124E-10
  7.4124E-10
  7.4124E-10
  2.7673E-09
  2.7673E-09
  2.7673E-09
  2.7673E-09
  2.7673E-09
  2.7673E-09
  2.7673E-09
  2.7673E-09
  2.7673E-09
  1.0331E-08
  1.0331E-08
  1.0331E-08
  1.0331E-08
  1.0331E-08
  1.0331E-08
  1.0331E-08
  1.0331E-08
  1.0331E-08
  3.8571E-08
  3.8571E-08
  3.8571E-08
  3.8571E-08
  3.8571E-08
  3.8571E-08
  3.8571E-08
  3.8571E-08
  3.8571E-08
  1.4400E-07
  1.4400E-07
  1.4400E-07
  1.4400E-07
  1.4400E-07
  1.4400E-07
  1.4400E-07
  1.4400E-07
  1.4400E-07
  5.3759E-07
  5.3759E-07
  5.3759E-07
  5.3759E-07
  5.3759E-07
  5.3759E-07
  5.3759E-07
  5.3759E-07
  5.3759E-07
  2.0070E-06
  2.0070E-06
  2.0070E-06
  2.0070E-06
  2.0070E-06
  2.0070E-06
  2.0070E-06
  2.0070E-06
  2.0070E-06
  7.4927E-06
  7.4927E-06
  7.4927E-06
  7.4927E-06
  7.4927E-06
  7.4927E-06
  7.4927E-06
  7.4927E-06
  7.4927E-06
  2.7973E-05
  2.7973E-05
  2.7973E-05
  2.7973E-05
  2.7973E-05
  2.7973E-05
  2.7973E-05
  2.7973E-05
  2.7973E-05
  1.0443E-04
  1.0443E-04
  1.0443E-04
  1.0443E-04
  1.0443E-04
  1.0443E-04
  1.0443E-04
  1.0443E-04
  1.0443E-04
  3.8988E-04
  3.8988E-04
  3.8988E-04
  3.8988E-04
  3.8988E-04
  3.8988E-04
  3.8988E-04
  3.8988E-04
  3.8988E-04
  1.4555E-03
  1.4555E-03
  1.4555E-03
  1.4555E-03
  1.4555E-03
  1.4555E-03
  1.4555E-03
  1.4555E-03
  1.4555E-03
  5.4340E-03
  5.4340E-03
  5.4340E-03
  5.4340E-03
  5.4340E-03
  5.4340E-03
  5.4340E-03
  5.4340E-03
  5.4340E-03
  2.0287E-02
  2.0287E-02
  2.0287E-02
  2.0287E-02
  2.0287E-02
  2.0287E-02
  2.0287E-02
  2.0287E-02
  2.0287E-02
  7.5737E-02
  7.5737E-02
  7.5737E-02
  7.5737E-02
  7.5737E-02
  7.5737E-02
  7.5737E-02
  7.5737E-02
  7.5737E-02
  2.8275E-01
  2.8275E-01
  2.8275E-01
  2.8275E-01
  2.8275E-01
  2.8275E-01
  2.8275E-01
  2.8275E-01
  2.8275E-01
  4.4603E-01
  4.4603E-01
  4.4603E-01
  4.4603E-01
  4.4603E-01
  4.4603E-01
  4.4603E-01
  4.4603E-01
  4.4603E-01
   1.6000E-02
  4.4601E-12
  4.4601E-12
  4.4601E-12
  4.4601E-12
  4.4601E-12
  4.4601E-12
  4.4601E-12
  4.4601E-12
  4.4601E-12
  1.3388E-11
  1.3388E-11
  1.3388E-11
  1.3388E-11
  1.3388E-11
  1.3388E-11
  1.3388E-11
  1.3388E-11
  1.3388E-11
  5.3573E-11
  5.3573E-11
  5.3573E-11
  5.3573E-11
  5.3573E-11
  5.3573E-11
  5.3573E-11
  5.3573E-11
  5.3573E-11
  2.0097E-10
  2.0097E-10
  2.0097E-10
  2.0097E-10
  2.0097E-10
  2.0097E-10
  2.0097E-10
  2.0097E-10
  2.0097E-10
  7.5054E-10
  7.5054E-10
  7.5054E-10
  7.5054E-10
  7.5054E-10
  7.5054E-10
  7.5054E-10
  7.5054E-10
  7.5054E-10
  2.8021E-09
  2.8021E-09
  2.8021E-09
  2.8021E-09
  2.8021E-09
  2.8021E-09
  2.8021E-09
  2.8021E-09
  2.8021E-09
  1.0461E-08
  1.0461E-08
  1.0461E-08
  1.0461E-08
  1.0461E-08
  1.0461E-08
  1.0461E-08
  1.0461E-08
  1.0461E-08
  3.9055E-08
  3.9055E-08
  3.9055E-08
  3.9055E-08
  3.9055E-08
  3.9055E-08
  3.9055E-08
  3.9055E-08
  3.9055E-08
  1.4581E-07
  1.4581E-07
  1.4581E-07
  1.4581E-07
  1.4581E-07
  1.4581E-07
  1.4581E-07
  1.4581E-07
  1.4581E-07
  5.4434E-07
  5.4434E-07
  5.4434E-07
  5.4434E-07
  5.4434E-07
  5.4434E-07
  5.4434E-07
  5.4434E-07
  5.4434E-07
  2.0322E-06
  2.0322E-06
  2.0322E-06
  2.0322E-06
  2.0322E-06
  2.0322E-06
  2.0322E-06
  2.0322E-06
  2.0322E-06
  7.5870E-06
  7.5870E-06
  7.5870E-06
  7.5870E-06
  7.5870E-06
  7.5870E-06
  7.5870E-06
  7.5870E-06
  7.5870E-06
  2.8325E-05
  2.8325E-05
  2.8325E-05
  2.8325E-05
  2.8325E-05
  2.8325E-05
  2.8325E-05
  2.8325E-05
  2.8325E-05
  1.0575E-04
  1.0575E-04
  1.0575E-04
  1.0575E-04
  1.0575E-04
  1.0575E-04
  1.0575E-04
  1.0575E-04
  1.0575E-04
  3.9479E-04
  3.9479E-04
  3.9479E-04
  3.9479E-04
  3.9479E-04
  3.9479E-04
  3.9479E-04
  3.9479E-04
  3.9479E-04
  1.4739E-03
  1.4739E-03
  1.4739E-03
  1.4739E-03
  1.4739E-03
  1.4739E-03
  1.4739E-03
  1.4739E-03
  1.4739E-03
  5.5025E-03
  5.5025E-03
  5.5025E-03
  5.5025E-03
  5.5025E-03
  5.5025E-03
  5.5025E-03
  5.5025E-03
  5.5025E-03
  2.0543E-02
  2.0543E-02
  2.0543E-02
  2.0543E-02
  2.0543E-02
  2.0543E-02
  2.0543E-02
  2.0543E-02
  2.0543E-02
  7.6692E-02
  7.6692E-02
  7.6692E-02
  7.6692E-02
  7.6692E-02
  7.6692E-02
  7.6692E-02
  7.6692E-02
  7.6692E-02
  2.8632E-01
  2.8632E-01
  2.8632E-01
  2.8632E-01
  2.8632E-01
  2.8632E-01
  2.8632E-01
  2.8632E-01
  2.8632E-01
  4.5166E-01
  4.5166E-01
  4.5166E-01
  4.5166E-01
  4.5166E-01
  4.5166E-01
  4.5166E-01
  4.5166E-01
  4.5166E-01
   1.6100E-02
  4.5156E-12
  4.5156E-12
  4.5156E-12
  4.5156E-12
  4.5156E-12
  4.5156E-12
  4.5156E-12
  4.5156E-12
  4.5156E-12
  1.3555E-11
  1.3555E-11
  1.3555E-11
  1.3555E-11
  1.3555E-11
  1.3555E-11
  1.3555E-11
  1.3555E-11
  1.3555E-11
  5.4240E-11
  5.4240E-11
  5.4240E-11
  5.4240E-11
  5.4240E-11
  5.4240E-11
  5.4240E-11
  5.4240E-11
  5.4240E-11
  2.0347E-10
  2.0347E-10
  2.0347E-10
  2.0347E-10
  2.0347E-10
  2.0347E-10
  2.0347E-10
  2.0347E-10
  2.0347E-10
  7.5990E-10
  7.5990E-10
  7.5990E-10
  7.5990E-10
  7.5990E-10
  7.5990E-10
  7.5990E-10
  7.5990E-10
  7.5990E-10
  2.8370E-09
  2.8370E-09
  2.8370E-09
  2.8370E-09
  2.8370E-09
  2.8370E-09
  2.8370E-09
  2.8370E-09
  2.8370E-09
  1.0592E-08
  1.0592E-08
  1.0592E-08
  1.0592E-08
  1.0592E-08
  1.0592E-08
  1.0592E-08
  1.0592E-08
  1.0592E-08
  3.9543E-08
  3.9543E-08
  3.9543E-08
  3.9543E-08
  3.9543E-08
  3.9543E-08
  3.9543E-08
  3.9543E-08
  3.9543E-08
  1.4763E-07
  1.4763E-07
  1.4763E-07
  1.4763E-07
  1.4763E-07
  1.4763E-07
  1.4763E-07
  1.4763E-07
  1.4763E-07
  5.5114E-07
  5.5114E-07
  5.5114E-07
  5.5114E-07
  5.5114E-07
  5.5114E-07
  5.5114E-07
  5.5114E-07
  5.5114E-07
  2.0576E-06
  2.0576E-06
  2.0576E-06
  2.0576E-06
  2.0576E-06
  2.0576E-06
  2.0576E-06
  2.0576E-06
  2.0576E-06
  7.6818E-06
  7.6818E-06
  7.6818E-06
  7.6818E-06
  7.6818E-06
  7.6818E-06
  7.6818E-06
  7.6818E-06
  7.6818E-06
  2.8679E-05
  2.8679E-05
  2.8679E-05
  2.8679E-05
  2.8679E-05
  2.8679E-05
  2.8679E-05
  2.8679E-05
  2.8679E-05
  1.0707E-04
  1.0707E-04
  1.0707E-04
  1.0707E-04
  1.0707E-04
  1.0707E-04
  1.0707E-04
  1.0707E-04
  1.0707E-04
  3.9973E-04
  3.9973E-04
  3.9973E-04
  3.9973E-04
  3.9973E-04
  3.9973E-04
  3.9973E-04
  3.9973E-04
  3.9973E-04
  1.4923E-03
  1.4923E-03
  1.4923E-03
  1.4923E-03
  1.4923E-03
  1.4923E-03
  1.4923E-03
  1.4923E-03
  1.4923E-03
  5.5714E-03
  5.5714E-03
  5.5714E-03
  5.5714E-03
  5.5714E-03
  5.5714E-03
  5.5714E-03
  5.5714E-03
  5.5714E-03
  2.0800E-02
  2.0800E-02
  2.0800E-02
  2.0800E-02
  2.0800E-02
  2.0800E-02
  2.0800E-02
  2.0800E-02
  2.0800E-02
  7.7654E-02
  7.7654E-02
  7.7654E-02
  7.7654E-02
  7.7654E-02
  7.7654E-02
  7.7654E-02
  7.7654E-02
  7.7654E-02
  2.8991E-01
  2.8991E-01
  2.8991E-01
  2.8991E-01
  2.8991E-01
  2.8991E-01
  2.8991E-01
  2.8991E-01
  2.8991E-01
  4.5732E-01
  4.5732E-01
  4.5732E-01
  4.5732E-01
  4.5732E-01
  4.5732E-01
  4.5732E-01
  4.5732E-01
  4.5732E-01
   1.6200E-02
  4.5714E-12
  4.5714E-12
  4.5714E-12
  4.5714E-12
  4.5714E-12
  4.5714E-12
  4.5714E-12
  4.5714E-12
  4.5714E-12
  1.3722E-11
  1.3722E-11
  1.3722E-11
  1.3722E-11
  1.3722E-11
  1.3722E-11
  1.3722E-11
  1.3722E-11
  1.3722E-11
  5.4912E-11
  5.4912E-11
  5.4912E-11
  5.4912E-11
  5.4912E-11
  5.4912E-11
  5.4912E-11
  5.4912E-11
  5.4912E-11
  2.0599E-10
  2.0599E-10
  2.0599E-10
  2.0599E-10
  2.0599E-10
  2.0599E-10
  2.0599E-10
  2.0599E-10
  2.0599E-10
  7.6931E-10
  7.6931E-10
  7.6931E-10
  7.6931E-10
  7.6931E-10
  7.6931E-10
  7.6931E-10
  7.6931E-10
  7.6931E-10
  2.8722E-09
  2.8722E-09
  2.8722E-09
  2.8722E-09
  2.8722E-09
  2.8722E-09
  2.8722E-09
  2.8722E-09
  2.8722E-09
  1.0723E-08
  1.0723E-08
  1.0723E-08
  1.0723E-08
  1.0723E-08
  1.0723E-08
  1.0723E-08
  1.0723E-08
  1.0723E-08
  4.0033E-08
  4.0033E-08
  4.0033E-08
  4.0033E-08
  4.0033E-08
  4.0033E-08
  4.0033E-08
  4.0033E-08
  4.0033E-08
  1.4946E-07
  1.4946E-07
  1.4946E-07
  1.4946E-07
  1.4946E-07
  1.4946E-07
  1.4946E-07
  1.4946E-07
  1.4946E-07
  5.5799E-07
  5.5799E-07
  5.5799E-07
  5.5799E-07
  5.5799E-07
  5.5799E-07
  5.5799E-07
  5.5799E-07
  5.5799E-07
  2.0832E-06
  2.0832E-06
  2.0832E-06
  2.0832E-06
  2.0832E-06
  2.0832E-06
  2.0832E-06
  2.0832E-06
  2.0832E-06
  7.7773E-06
  7.7773E-06
  7.7773E-06
  7.7773E-06
  7.7773E-06
  7.7773E-06
  7.7773E-06
  7.7773E-06
  7.7773E-06
  2.9035E-05
  2.9035E-05
  2.9035E-05
  2.9035E-05
  2.9035E-05
  2.9035E-05
  2.9035E-05
  2.9035E-05
  2.9035E-05
  1.0840E-04
  1.0840E-04
  1.0840E-04
  1.0840E-04
  1.0840E-04
  1.0840E-04
  1.0840E-04
  1.0840E-04
  1.0840E-04
  4.0470E-04
  4.0470E-04
  4.0470E-04
  4.0470E-04
  4.0470E-04
  4.0470E-04
  4.0470E-04
  4.0470E-04
  4.0470E-04
  1.5109E-03
  1.5109E-03
  1.5109E-03
  1.5109E-03
  1.5109E-03
  1.5109E-03
  1.5109E-03
  1.5109E-03
  1.5109E-03
  5.6407E-03
  5.6407E-03
  5.6407E-03
  5.6407E-03
  5.6407E-03
  5.6407E-03
  5.6407E-03
  5.6407E-03
  5.6407E-03
  2.1059E-02
  2.1059E-02
  2.1059E-02
  2.1059E-02
  2.1059E-02
  2.1059E-02
  2.1059E-02
  2.1059E-02
  2.1059E-02
  7.8621E-02
  7.8621E-02
  7.8621E-02
  7.8621E-02
  7.8621E-02
  7.8621E-02
  7.8621E-02
  7.8621E-02
  7.8621E-02
  2.9352E-01
  2.9352E-01
  2.9352E-01
  2.9352E-01
  2.9352E-01
  2.9352E-01
  2.9352E-01
  2.9352E-01
  2.9352E-01
  4.6302E-01
  4.6302E-01
  4.6302E-01
  4.6302E-01
  4.6302E-01
  4.6302E-01
  4.6302E-01
  4.6302E-01
  4.6302E-01
   1.6300E-02
  4.6276E-12
  4.6276E-12
  4.6276E-12
  4.6276E-12
  4.6276E-12
  4.6276E-12
  4.6276E-12
  4.6276E-12
  4.6276E-12
  1.3891E-11
  1.3891E-11
  1.3891E-11
  1.3891E-11
  1.3891E-11
  1.3891E-11
  1.3891E-11
  1.3891E-11
  1.3891E-11
  5.5588E-11
  5.5588E-11
  5.5588E-11
  5.5588E-11
  5.5588E-11
  5.5588E-11
  5.5588E-11
  5.5588E-11
  5.5588E-11
  2.0853E-10
  2.0853E-10
  2.0853E-10
  2.0853E-10
  2.0853E-10
  2.0853E-10
  2.0853E-10
  2.0853E-10
  2.0853E-10
  7.7879E-10
  7.7879E-10
  7.7879E-10
  7.7879E-10
  7.7879E-10
  7.7879E-10
  7.7879E-10
  7.7879E-10
  7.7879E-10
  2.9076E-09
  2.9076E-09
  2.9076E-09
  2.9076E-09
  2.9076E-09
  2.9076E-09
  2.9076E-09
  2.9076E-09
  2.9076E-09
  1.0855E-08
  1.0855E-08
  1.0855E-08
  1.0855E-08
  1.0855E-08
  1.0855E-08
  1.0855E-08
  1.0855E-08
  1.0855E-08
  4.0527E-08
  4.0527E-08
  4.0527E-08
  4.0527E-08
  4.0527E-08
  4.0527E-08
  4.0527E-08
  4.0527E-08
  4.0527E-08
  1.5130E-07
  1.5130E-07
  1.5130E-07
  1.5130E-07
  1.5130E-07
  1.5130E-07
  1.5130E-07
  1.5130E-07
  1.5130E-07
  5.6487E-07
  5.6487E-07
  5.6487E-07
  5.6487E-07
  5.6487E-07
  5.6487E-07
  5.6487E-07
  5.6487E-07
  5.6487E-07
  2.1089E-06
  2.1089E-06
  2.1089E-06
  2.1089E-06
  2.1089E-06
  2.1089E-06
  2.1089E-06
  2.1089E-06
  2.1089E-06
  7.8733E-06
  7.8733E-06
  7.8733E-06
  7.8733E-06
  7.8733E-06
  7.8733E-06
  7.8733E-06
  7.8733E-06
  7.8733E-06
  2.9394E-05
  2.9394E-05
  2.9394E-05
  2.9394E-05
  2.9394E-05
  2.9394E-05
  2.9394E-05
  2.9394E-05
  2.9394E-05
  1.0974E-04
  1.0974E-04
  1.0974E-04
  1.0974E-04
  1.0974E-04
  1.0974E-04
  1.0974E-04
  1.0974E-04
  1.0974E-04
  4.0970E-04
  4.0970E-04
  4.0970E-04
  4.0970E-04
  4.0970E-04
  4.0970E-04
  4.0970E-04
  4.0970E-04
  4.0970E-04
  1.5296E-03
  1.5296E-03
  1.5296E-03
  1.5296E-03
  1.5296E-03
  1.5296E-03
  1.5296E-03
  1.5296E-03
  1.5296E-03
  5.7105E-03
  5.7105E-03
  5.7105E-03
  5.7105E-03
  5.7105E-03
  5.7105E-03
  5.7105E-03
  5.7105E-03
  5.7105E-03
  2.1319E-02
  2.1319E-02
  2.1319E-02
  2.1319E-02
  2.1319E-02
  2.1319E-02
  2.1319E-02
  2.1319E-02
  2.1319E-02
  7.9594E-02
  7.9594E-02
  7.9594E-02
  7.9594E-02
  7.9594E-02
  7.9594E-02
  7.9594E-02
  7.9594E-02
  7.9594E-02
  2.9715E-01
  2.9715E-01
  2.9715E-01
  2.9715E-01
  2.9715E-01
  2.9715E-01
  2.9715E-01
  2.9715E-01
  2.9715E-01
  4.6875E-01
  4.6875E-01
  4.6875E-01
  4.6875E-01
  4.6875E-01
  4.6875E-01
  4.6875E-01
  4.6875E-01
  4.6875E-01
   1.6400E-02
  4.6842E-12
  4.6842E-12
  4.6842E-12
  4.6842E-12
  4.6842E-12
  4.6842E-12
  4.6842E-12
  4.6842E-12
  4.6842E-12
  1.4061E-11
  1.4061E-11
  1.4061E-11
  1.4061E-11
  1.4061E-11
  1.4061E-11
  1.4061E-11
  1.4061E-11
  1.4061E-11
  5.6267E-11
  5.6267E-11
  5.6267E-11
  5.6267E-11
  5.6267E-11
  5.6267E-11
  5.6267E-11
  5.6267E-11
  5.6267E-11
  2.1108E-10
  2.1108E-10
  2.1108E-10
  2.1108E-10
  2.1108E-10
  2.1108E-10
  2.1108E-10
  2.1108E-10
  2.1108E-10
  7.8832E-10
  7.8832E-10
  7.8832E-10
  7.8832E-10
  7.8832E-10
  7.8832E-10
  7.8832E-10
  7.8832E-10
  7.8832E-10
  2.9432E-09
  2.9432E-09
  2.9432E-09
  2.9432E-09
  2.9432E-09
  2.9432E-09
  2.9432E-09
  2.9432E-09
  2.9432E-09
  1.0988E-08
  1.0988E-08
  1.0988E-08
  1.0988E-08
  1.0988E-08
  1.0988E-08
  1.0988E-08
  1.0988E-08
  1.0988E-08
  4.1023E-08
  4.1023E-08
  4.1023E-08
  4.1023E-08
  4.1023E-08
  4.1023E-08
  4.1023E-08
  4.1023E-08
  4.1023E-08
  1.5316E-07
  1.5316E-07
  1.5316E-07
  1.5316E-07
  1.5316E-07
  1.5316E-07
  1.5316E-07
  1.5316E-07
  1.5316E-07
  5.7179E-07
  5.7179E-07
  5.7179E-07
  5.7179E-07
  5.7179E-07
  5.7179E-07
  5.7179E-07
  5.7179E-07
  5.7179E-07
  2.1347E-06
  2.1347E-06
  2.1347E-06
  2.1347E-06
  2.1347E-06
  2.1347E-06
  2.1347E-06
  2.1347E-06
  2.1347E-06
  7.9698E-06
  7.9698E-06
  7.9698E-06
  7.9698E-06
  7.9698E-06
  7.9698E-06
  7.9698E-06
  7.9698E-06
  7.9698E-06
  2.9755E-05
  2.9755E-05
  2.9755E-05
  2.9755E-05
  2.9755E-05
  2.9755E-05
  2.9755E-05
  2.9755E-05
  2.9755E-05
  1.1109E-04
  1.1109E-04
  1.1109E-04
  1.1109E-04
  1.1109E-04
  1.1109E-04
  1.1109E-04
  1.1109E-04
  1.1109E-04
  4.1473E-04
  4.1473E-04
  4.1473E-04
  4.1473E-04
  4.1473E-04
  4.1473E-04
  4.1473E-04
  4.1473E-04
  4.1473E-04
  1.5484E-03
  1.5484E-03
  1.5484E-03
  1.5484E-03
  1.5484E-03
  1.5484E-03
  1.5484E-03
  1.5484E-03
  1.5484E-03
  5.7806E-03
  5.7806E-03
  5.7806E-03
  5.7806E-03
  5.7806E-03
  5.7806E-03
  5.7806E-03
  5.7806E-03
  5.7806E-03
  2.1581E-02
  2.1581E-02
  2.1581E-02
  2.1581E-02
  2.1581E-02
  2.1581E-02
  2.1581E-02
  2.1581E-02
  2.1581E-02
  8.0572E-02
  8.0572E-02
  8.0572E-02
  8.0572E-02
  8.0572E-02
  8.0572E-02
  8.0572E-02
  8.0572E-02
  8.0572E-02
  3.0081E-01
  3.0081E-01
  3.0081E-01
  3.0081E-01
  3.0081E-01
  3.0081E-01
  3.0081E-01
  3.0081E-01
  3.0081E-01
  4.7452E-01
  4.7452E-01
  4.7452E-01
  4.7452E-01
  4.7452E-01
  4.7452E-01
  4.7452E-01
  4.7452E-01
  4.7452E-01
   1.6500E-02
  4.7410E-12
  4.7410E-12
  4.7410E-12
  4.7410E-12
  4.7410E-12
  4.7410E-12
  4.7410E-12
  4.7410E-12
  4.7410E-12
  1.4232E-11
  1.4232E-11
  1.4232E-11
  1.4232E-11
  1.4232E-11
  1.4232E-11
  1.4232E-11
  1.4232E-11
  1.4232E-11
  5.6951E-11
  5.6951E-11
  5.6951E-11
  5.6951E-11
  5.6951E-11
  5.6951E-11
  5.6951E-11
  5.6951E-11
  5.6951E-11
  2.1365E-10
  2.1365E-10
  2.1365E-10
  2.1365E-10
  2.1365E-10
  2.1365E-10
  2.1365E-10
  2.1365E-10
  2.1365E-10
  7.9790E-10
  7.9790E-10
  7.9790E-10
  7.9790E-10
  7.9790E-10
  7.9790E-10
  7.9790E-10
  7.9790E-10
  7.9790E-10
  2.9790E-09
  2.9790E-09
  2.9790E-09
  2.9790E-09
  2.9790E-09
  2.9790E-09
  2.9790E-09
  2.9790E-09
  2.9790E-09
  1.1122E-08
  1.1122E-08
  1.1122E-08
  1.1122E-08
  1.1122E-08
  1.1122E-08
  1.1122E-08
  1.1122E-08
  1.1122E-08
  4.1523E-08
  4.1523E-08
  4.1523E-08
  4.1523E-08
  4.1523E-08
  4.1523E-08
  4.1523E-08
  4.1523E-08
  4.1523E-08
  1.5502E-07
  1.5502E-07
  1.5502E-07
  1.5502E-07
  1.5502E-07
  1.5502E-07
  1.5502E-07
  1.5502E-07
  1.5502E-07
  5.7876E-07
  5.7876E-07
  5.7876E-07
  5.7876E-07
  5.7876E-07
  5.7876E-07
  5.7876E-07
  5.7876E-07
  5.7876E-07
  2.1608E-06
  2.1608E-06
  2.1608E-06
  2.1608E-06
  2.1608E-06
  2.1608E-06
  2.1608E-06
  2.1608E-06
  2.1608E-06
  8.0670E-06
  8.0670E-06
  8.0670E-06
  8.0670E-06
  8.0670E-06
  8.0670E-06
  8.0670E-06
  8.0670E-06
  8.0670E-06
  3.0118E-05
  3.0118E-05
  3.0118E-05
  3.0118E-05
  3.0118E-05
  3.0118E-05
  3.0118E-05
  3.0118E-05
  3.0118E-05
  1.1244E-04
  1.1244E-04
  1.1244E-04
  1.1244E-04
  1.1244E-04
  1.1244E-04
  1.1244E-04
  1.1244E-04
  1.1244E-04
  4.1979E-04
  4.1979E-04
  4.1979E-04
  4.1979E-04
  4.1979E-04
  4.1979E-04
  4.1979E-04
  4.1979E-04
  4.1979E-04
  1.5673E-03
  1.5673E-03
  1.5673E-03
  1.5673E-03
  1.5673E-03
  1.5673E-03
  1.5673E-03
  1.5673E-03
  1.5673E-03
  5.8513E-03
  5.8513E-03
  5.8513E-03
  5.8513E-03
  5.8513E-03
  5.8513E-03
  5.8513E-03
  5.8513E-03
  5.8513E-03
  2.1845E-02
  2.1845E-02
  2.1845E-02
  2.1845E-02
  2.1845E-02
  2.1845E-02
  2.1845E-02
  2.1845E-02
  2.1845E-02
  8.1557E-02
  8.1557E-02
  8.1557E-02
  8.1557E-02
  8.1557E-02
  8.1557E-02
  8.1557E-02
  8.1557E-02
  8.1557E-02
  3.0449E-01
  3.0449E-01
  3.0449E-01
  3.0449E-01
  3.0449E-01
  3.0449E-01
  3.0449E-01
  3.0449E-01
  3.0449E-01
  4.8032E-01
  4.8032E-01
  4.8032E-01
  4.8032E-01
  4.8032E-01
  4.8032E-01
  4.8032E-01
  4.8032E-01
  4.8032E-01
   1.6600E-02
  4.7982E-12
  4.7982E-12
  4.7982E-12
  4.7982E-12
  4.7982E-12
  4.7982E-12
  4.7982E-12
  4.7982E-12
  4.7982E-12
  1.4404E-11
  1.4404E-11
  1.4404E-11
  1.4404E-11
  1.4404E-11
  1.4404E-11
  1.4404E-11
  1.4404E-11
  1.4404E-11
  5.7639E-11
  5.7639E-11
  5.7639E-11
  5.7639E-11
  5.7639E-11
  5.7639E-11
  5.7639E-11
  5.7639E-11
  5.7639E-11
  2.1623E-10
  2.1623E-10
  2.1623E-10
  2.1623E-10
  2.1623E-10
  2.1623E-10
  2.1623E-10
  2.1623E-10
  2.1623E-10
  8.0755E-10
  8.0755E-10
  8.0755E-10
  8.0755E-10
  8.0755E-10
  8.0755E-10
  8.0755E-10
  8.0755E-10
  8.0755E-10
  3.0150E-09
  3.0150E-09
  3.0150E-09
  3.0150E-09
  3.0150E-09
  3.0150E-09
  3.0150E-09
  3.0150E-09
  3.0150E-09
  1.1256E-08
  1.1256E-08
  1.1256E-08
  1.1256E-08
  1.1256E-08
  1.1256E-08
  1.1256E-08
  1.1256E-08
  1.1256E-08
  4.2025E-08
  4.2025E-08
  4.2025E-08
  4.2025E-08
  4.2025E-08
  4.2025E-08
  4.2025E-08
  4.2025E-08
  4.2025E-08
  1.5690E-07
  1.5690E-07
  1.5690E-07
  1.5690E-07
  1.5690E-07
  1.5690E-07
  1.5690E-07
  1.5690E-07
  1.5690E-07
  5.8577E-07
  5.8577E-07
  5.8577E-07
  5.8577E-07
  5.8577E-07
  5.8577E-07
  5.8577E-07
  5.8577E-07
  5.8577E-07
  2.1869E-06
  2.1869E-06
  2.1869E-06
  2.1869E-06
  2.1869E-06
  2.1869E-06
  2.1869E-06
  2.1869E-06
  2.1869E-06
  8.1648E-06
  8.1648E-06
  8.1648E-06
  8.1648E-06
  8.1648E-06
  8.1648E-06
  8.1648E-06
  8.1648E-06
  8.1648E-06
  3.0483E-05
  3.0483E-05
  3.0483E-05
  3.0483E-05
  3.0483E-05
  3.0483E-05
  3.0483E-05
  3.0483E-05
  3.0483E-05
  1.1381E-04
  1.1381E-04
  1.1381E-04
  1.1381E-04
  1.1381E-04
  1.1381E-04
  1.1381E-04
  1.1381E-04
  1.1381E-04
  4.2489E-04
  4.2489E-04
  4.2489E-04
  4.2489E-04
  4.2489E-04
  4.2489E-04
  4.2489E-04
  4.2489E-04
  4.2489E-04
  1.5863E-03
  1.5863E-03
  1.5863E-03
  1.5863E-03
  1.5863E-03
  1.5863E-03
  1.5863E-03
  1.5863E-03
  1.5863E-03
  5.9223E-03
  5.9223E-03
  5.9223E-03
  5.9223E-03
  5.9223E-03
  5.9223E-03
  5.9223E-03
  5.9223E-03
  5.9223E-03
  2.2111E-02
  2.2111E-02
  2.2111E-02
  2.2111E-02
  2.2111E-02
  2.2111E-02
  2.2111E-02
  2.2111E-02
  2.2111E-02
  8.2548E-02
  8.2548E-02
  8.2548E-02
  8.2548E-02
  8.2548E-02
  8.2548E-02
  8.2548E-02
  8.2548E-02
  8.2548E-02
  3.0819E-01
  3.0819E-01
  3.0819E-01
  3.0819E-01
  3.0819E-01
  3.0819E-01
  3.0819E-01
  3.0819E-01
  3.0819E-01
  4.8616E-01
  4.8616E-01
  4.8616E-01
  4.8616E-01
  4.8616E-01
  4.8616E-01
  4.8616E-01
  4.8616E-01
  4.8616E-01
   1.6700E-02
  4.8558E-12
  4.8558E-12
  4.8558E-12
  4.8558E-12
  4.8558E-12
  4.8558E-12
  4.8558E-12
  4.8558E-12
  4.8558E-12
  1.4576E-11
  1.4576E-11
  1.4576E-11
  1.4576E-11
  1.4576E-11
  1.4576E-11
  1.4576E-11
  1.4576E-11
  1.4576E-11
  5.8331E-11
  5.8331E-11
  5.8331E-11
  5.8331E-11
  5.8331E-11
  5.8331E-11
  5.8331E-11
  5.8331E-11
  5.8331E-11
  2.1882E-10
  2.1882E-10
  2.1882E-10
  2.1882E-10
  2.1882E-10
  2.1882E-10
  2.1882E-10
  2.1882E-10
  2.1882E-10
  8.1725E-10
  8.1725E-10
  8.1725E-10
  8.1725E-10
  8.1725E-10
  8.1725E-10
  8.1725E-10
  8.1725E-10
  8.1725E-10
  3.0512E-09
  3.0512E-09
  3.0512E-09
  3.0512E-09
  3.0512E-09
  3.0512E-09
  3.0512E-09
  3.0512E-09
  3.0512E-09
  1.1392E-08
  1.1392E-08
  1.1392E-08
  1.1392E-08
  1.1392E-08
  1.1392E-08
  1.1392E-08
  1.1392E-08
  1.1392E-08
  4.2530E-08
  4.2530E-08
  4.2530E-08
  4.2530E-08
  4.2530E-08
  4.2530E-08
  4.2530E-08
  4.2530E-08
  4.2530E-08
  1.5879E-07
  1.5879E-07
  1.5879E-07
  1.5879E-07
  1.5879E-07
  1.5879E-07
  1.5879E-07
  1.5879E-07
  1.5879E-07
  5.9282E-07
  5.9282E-07
  5.9282E-07
  5.9282E-07
  5.9282E-07
  5.9282E-07
  5.9282E-07
  5.9282E-07
  5.9282E-07
  2.2133E-06
  2.2133E-06
  2.2133E-06
  2.2133E-06
  2.2133E-06
  2.2133E-06
  2.2133E-06
  2.2133E-06
  2.2133E-06
  8.2631E-06
  8.2631E-06
  8.2631E-06
  8.2631E-06
  8.2631E-06
  8.2631E-06
  8.2631E-06
  8.2631E-06
  8.2631E-06
  3.0850E-05
  3.0850E-05
  3.0850E-05
  3.0850E-05
  3.0850E-05
  3.0850E-05
  3.0850E-05
  3.0850E-05
  3.0850E-05
  1.1518E-04
  1.1518E-04
  1.1518E-04
  1.1518E-04
  1.1518E-04
  1.1518E-04
  1.1518E-04
  1.1518E-04
  1.1518E-04
  4.3001E-04
  4.3001E-04
  4.3001E-04
  4.3001E-04
  4.3001E-04
  4.3001E-04
  4.3001E-04
  4.3001E-04
  4.3001E-04
  1.6054E-03
  1.6054E-03
  1.6054E-03
  1.6054E-03
  1.6054E-03
  1.6054E-03
  1.6054E-03
  1.6054E-03
  1.6054E-03
  5.9938E-03
  5.9938E-03
  5.9938E-03
  5.9938E-03
  5.9938E-03
  5.9938E-03
  5.9938E-03
  5.9938E-03
  5.9938E-03
  2.2377E-02
  2.2377E-02
  2.2377E-02
  2.2377E-02
  2.2377E-02
  2.2377E-02
  2.2377E-02
  2.2377E-02
  2.2377E-02
  8.3545E-02
  8.3545E-02
  8.3545E-02
  8.3545E-02
  8.3545E-02
  8.3545E-02
  8.3545E-02
  8.3545E-02
  8.3545E-02
  3.1191E-01
  3.1191E-01
  3.1191E-01
  3.1191E-01
  3.1191E-01
  3.1191E-01
  3.1191E-01
  3.1191E-01
  3.1191E-01
  4.9203E-01
  4.9203E-01
  4.9203E-01
  4.9203E-01
  4.9203E-01
  4.9203E-01
  4.9203E-01
  4.9203E-01
  4.9203E-01
   1.6800E-02
  4.9136E-12
  4.9136E-12
  4.9136E-12
  4.9136E-12
  4.9136E-12
  4.9136E-12
  4.9136E-12
  4.9136E-12
  4.9136E-12
  1.4750E-11
  1.4750E-11
  1.4750E-11
  1.4750E-11
  1.4750E-11
  1.4750E-11
  1.4750E-11
  1.4750E-11
  1.4750E-11
  5.9027E-11
  5.9027E-11
  5.9027E-11
  5.9027E-11
  5.9027E-11
  5.9027E-11
  5.9027E-11
  5.9027E-11
  5.9027E-11
  2.2143E-10
  2.2143E-10
  2.2143E-10
  2.2143E-10
  2.2143E-10
  2.2143E-10
  2.2143E-10
  2.2143E-10
  2.2143E-10
  8.2700E-10
  8.2700E-10
  8.2700E-10
  8.2700E-10
  8.2700E-10
  8.2700E-10
  8.2700E-10
  8.2700E-10
  8.2700E-10
  3.0877E-09
  3.0877E-09
  3.0877E-09
  3.0877E-09
  3.0877E-09
  3.0877E-09
  3.0877E-09
  3.0877E-09
  3.0877E-09
  1.1528E-08
  1.1528E-08
  1.1528E-08
  1.1528E-08
  1.1528E-08
  1.1528E-08
  1.1528E-08
  1.1528E-08
  1.1528E-08
  4.3039E-08
  4.3039E-08
  4.3039E-08
  4.3039E-08
  4.3039E-08
  4.3039E-08
  4.3039E-08
  4.3039E-08
  4.3039E-08
  1.6068E-07
  1.6068E-07
  1.6068E-07
  1.6068E-07
  1.6068E-07
  1.6068E-07
  1.6068E-07
  1.6068E-07
  1.6068E-07
  5.9991E-07
  5.9991E-07
  5.9991E-07
  5.9991E-07
  5.9991E-07
  5.9991E-07
  5.9991E-07
  5.9991E-07
  5.9991E-07
  2.2397E-06
  2.2397E-06
  2.2397E-06
  2.2397E-06
  2.2397E-06
  2.2397E-06
  2.2397E-06
  2.2397E-06
  2.2397E-06
  8.3620E-06
  8.3620E-06
  8.3620E-06
  8.3620E-06
  8.3620E-06
  8.3620E-06
  8.3620E-06
  8.3620E-06
  8.3620E-06
  3.1219E-05
  3.1219E-05
  3.1219E-05
  3.1219E-05
  3.1219E-05
  3.1219E-05
  3.1219E-05
  3.1219E-05
  3.1219E-05
  1.1656E-04
  1.1656E-04
  1.1656E-04
  1.1656E-04
  1.1656E-04
  1.1656E-04
  1.1656E-04
  1.1656E-04
  1.1656E-04
  4.3516E-04
  4.3516E-04
  4.3516E-04
  4.3516E-04
  4.3516E-04
  4.3516E-04
  4.3516E-04
  4.3516E-04
  4.3516E-04
  1.6247E-03
  1.6247E-03
  1.6247E-03
  1.6247E-03
  1.6247E-03
  1.6247E-03
  1.6247E-03
  1.6247E-03
  1.6247E-03
  6.0657E-03
  6.0657E-03
  6.0657E-03
  6.0657E-03
  6.0657E-03
  6.0657E-03
  6.0657E-03
  6.0657E-03
  6.0657E-03
  2.2646E-02
  2.2646E-02
  2.2646E-02
  2.2646E-02
  2.2646E-02
  2.2646E-02
  2.2646E-02
  2.2646E-02
  2.2646E-02
  8.4548E-02
  8.4548E-02
  8.4548E-02
  8.4548E-02
  8.4548E-02
  8.4548E-02
  8.4548E-02
  8.4548E-02
  8.4548E-02
  3.1566E-01
  3.1566E-01
  3.1566E-01
  3.1566E-01
  3.1566E-01
  3.1566E-01
  3.1566E-01
  3.1566E-01
  3.1566E-01
  4.9794E-01
  4.9794E-01
  4.9794E-01
  4.9794E-01
  4.9794E-01
  4.9794E-01
  4.9794E-01
  4.9794E-01
  4.9794E-01
   1.6900E-02
  4.9718E-12
  4.9718E-12
  4.9718E-12
  4.9718E-12
  4.9718E-12
  4.9718E-12
  4.9718E-12
  4.9718E-12
  4.9718E-12
  1.4925E-11
  1.4925E-11
  1.4925E-11
  1.4925E-11
  1.4925E-11
  1.4925E-11
  1.4925E-11
  1.4925E-11
  1.4925E-11
  5.9727E-11
  5.9727E-11
  5.9727E-11
  5.9727E-11
  5.9727E-11
  5.9727E-11
  5.9727E-11
  5.9727E-11
  5.9727E-11
  2.2406E-10
  2.2406E-10
  2.2406E-10
  2.2406E-10
  2.2406E-10
  2.2406E-10
  2.2406E-10
  2.2406E-10
  2.2406E-10
  8.3682E-10
  8.3682E-10
  8.3682E-10
  8.3682E-10
  8.3682E-10
  8.3682E-10
  8.3682E-10
  8.3682E-10
  8.3682E-10
  3.1243E-09
  3.1243E-09
  3.1243E-09
  3.1243E-09
  3.1243E-09
  3.1243E-09
  3.1243E-09
  3.1243E-09
  3.1243E-09
  1.1665E-08
  1.1665E-08
  1.1665E-08
  1.1665E-08
  1.1665E-08
  1.1665E-08
  1.1665E-08
  1.1665E-08
  1.1665E-08
  4.3550E-08
  4.3550E-08
  4.3550E-08
  4.3550E-08
  4.3550E-08
  4.3550E-08
  4.3550E-08
  4.3550E-08
  4.3550E-08
  1.6259E-07
  1.6259E-07
  1.6259E-07
  1.6259E-07
  1.6259E-07
  1.6259E-07
  1.6259E-07
  1.6259E-07
  1.6259E-07
  6.0704E-07
  6.0704E-07
  6.0704E-07
  6.0704E-07
  6.0704E-07
  6.0704E-07
  6.0704E-07
  6.0704E-07
  6.0704E-07
  2.2664E-06
  2.2664E-06
  2.2664E-06
  2.2664E-06
  2.2664E-06
  2.2664E-06
  2.2664E-06
  2.2664E-06
  2.2664E-06
  8.4615E-06
  8.4615E-06
  8.4615E-06
  8.4615E-06
  8.4615E-06
  8.4615E-06
  8.4615E-06
  8.4615E-06
  8.4615E-06
  3.1591E-05
  3.1591E-05
  3.1591E-05
  3.1591E-05
  3.1591E-05
  3.1591E-05
  3.1591E-05
  3.1591E-05
  3.1591E-05
  1.1795E-04
  1.1795E-04
  1.1795E-04
  1.1795E-04
  1.1795E-04
  1.1795E-04
  1.1795E-04
  1.1795E-04
  1.1795E-04
  4.4035E-04
  4.4035E-04
  4.4035E-04
  4.4035E-04
  4.4035E-04
  4.4035E-04
  4.4035E-04
  4.4035E-04
  4.4035E-04
  1.6440E-03
  1.6440E-03
  1.6440E-03
  1.6440E-03
  1.6440E-03
  1.6440E-03
  1.6440E-03
  1.6440E-03
  1.6440E-03
  6.1380E-03
  6.1380E-03
  6.1380E-03
  6.1380E-03
  6.1380E-03
  6.1380E-03
  6.1380E-03
  6.1380E-03
  6.1380E-03
  2.2916E-02
  2.2916E-02
  2.2916E-02
  2.2916E-02
  2.2916E-02
  2.2916E-02
  2.2916E-02
  2.2916E-02
  2.2916E-02
  8.5557E-02
  8.5557E-02
  8.5557E-02
  8.5557E-02
  8.5557E-02
  8.5557E-02
  8.5557E-02
  8.5557E-02
  8.5557E-02
  3.1943E-01
  3.1943E-01
  3.1943E-01
  3.1943E-01
  3.1943E-01
  3.1943E-01
  3.1943E-01
  3.1943E-01
  3.1943E-01
  5.0389E-01
  5.0389E-01
  5.0389E-01
  5.0389E-01
  5.0389E-01
  5.0389E-01
  5.0389E-01
  5.0389E-01
  5.0389E-01
   1.7000E-02
  5.0304E-12
  5.0304E-12
  5.0304E-12
  5.0304E-12
  5.0304E-12
  5.0304E-12
  5.0304E-12
  5.0304E-12
  5.0304E-12
  1.5101E-11
  1.5101E-11
  1.5101E-11
  1.5101E-11
  1.5101E-11
  1.5101E-11
  1.5101E-11
  1.5101E-11
  1.5101E-11
  6.0431E-11
  6.0431E-11
  6.0431E-11
  6.0431E-11
  6.0431E-11
  6.0431E-11
  6.0431E-11
  6.0431E-11
  6.0431E-11
  2.2670E-10
  2.2670E-10
  2.2670E-10
  2.2670E-10
  2.2670E-10
  2.2670E-10
  2.2670E-10
  2.2670E-10
  2.2670E-10
  8.4669E-10
  8.4669E-10
  8.4669E-10
  8.4669E-10
  8.4669E-10
  8.4669E-10
  8.4669E-10
  8.4669E-10
  8.4669E-10
  3.1612E-09
  3.1612E-09
  3.1612E-09
  3.1612E-09
  3.1612E-09
  3.1612E-09
  3.1612E-09
  3.1612E-09
  3.1612E-09
  1.1802E-08
  1.1802E-08
  1.1802E-08
  1.1802E-08
  1.1802E-08
  1.1802E-08
  1.1802E-08
  1.1802E-08
  1.1802E-08
  4.4064E-08
  4.4064E-08
  4.4064E-08
  4.4064E-08
  4.4064E-08
  4.4064E-08
  4.4064E-08
  4.4064E-08
  4.4064E-08
  1.6451E-07
  1.6451E-07
  1.6451E-07
  1.6451E-07
  1.6451E-07
  1.6451E-07
  1.6451E-07
  1.6451E-07
  1.6451E-07
  6.1422E-07
  6.1422E-07
  6.1422E-07
  6.1422E-07
  6.1422E-07
  6.1422E-07
  6.1422E-07
  6.1422E-07
  6.1422E-07
  2.2932E-06
  2.2932E-06
  2.2932E-06
  2.2932E-06
  2.2932E-06
  2.2932E-06
  2.2932E-06
  2.2932E-06
  2.2932E-06
  8.5616E-06
  8.5616E-06
  8.5616E-06
  8.5616E-06
  8.5616E-06
  8.5616E-06
  8.5616E-06
  8.5616E-06
  8.5616E-06
  3.1965E-05
  3.1965E-05
  3.1965E-05
  3.1965E-05
  3.1965E-05
  3.1965E-05
  3.1965E-05
  3.1965E-05
  3.1965E-05
  1.1934E-04
  1.1934E-04
  1.1934E-04
  1.1934E-04
  1.1934E-04
  1.1934E-04
  1.1934E-04
  1.1934E-04
  1.1934E-04
  4.4556E-04
  4.4556E-04
  4.4556E-04
  4.4556E-04
  4.4556E-04
  4.4556E-04
  4.4556E-04
  4.4556E-04
  4.4556E-04
  1.6635E-03
  1.6635E-03
  1.6635E-03
  1.6635E-03
  1.6635E-03
  1.6635E-03
  1.6635E-03
  1.6635E-03
  1.6635E-03
  6.2107E-03
  6.2107E-03
  6.2107E-03
  6.2107E-03
  6.2107E-03
  6.2107E-03
  6.2107E-03
  6.2107E-03
  6.2107E-03
  2.3188E-02
  2.3188E-02
  2.3188E-02
  2.3188E-02
  2.3188E-02
  2.3188E-02
  2.3188E-02
  2.3188E-02
  2.3188E-02
  8.6572E-02
  8.6572E-02
  8.6572E-02
  8.6572E-02
  8.6572E-02
  8.6572E-02
  8.6572E-02
  8.6572E-02
  8.6572E-02
  3.2322E-01
  3.2322E-01
  3.2322E-01
  3.2322E-01
  3.2322E-01
  3.2322E-01
  3.2322E-01
  3.2322E-01
  3.2322E-01
  5.0987E-01
  5.0987E-01
  5.0987E-01
  5.0987E-01
  5.0987E-01
  5.0987E-01
  5.0987E-01
  5.0987E-01
  5.0987E-01
   1.7100E-02
  5.0892E-12
  5.0892E-12
  5.0892E-12
  5.0892E-12
  5.0892E-12
  5.0892E-12
  5.0892E-12
  5.0892E-12
  5.0892E-12
  1.5278E-11
  1.5278E-11
  1.5278E-11
  1.5278E-11
  1.5278E-11
  1.5278E-11
  1.5278E-11
  1.5278E-11
  1.5278E-11
  6.1139E-11
  6.1139E-11
  6.1139E-11
  6.1139E-11
  6.1139E-11
  6.1139E-11
  6.1139E-11
  6.1139E-11
  6.1139E-11
  2.2936E-10
  2.2936E-10
  2.2936E-10
  2.2936E-10
  2.2936E-10
  2.2936E-10
  2.2936E-10
  2.2936E-10
  2.2936E-10
  8.5662E-10
  8.5662E-10
  8.5662E-10
  8.5662E-10
  8.5662E-10
  8.5662E-10
  8.5662E-10
  8.5662E-10
  8.5662E-10
  3.1983E-09
  3.1983E-09
  3.1983E-09
  3.1983E-09
  3.1983E-09
  3.1983E-09
  3.1983E-09
  3.1983E-09
  3.1983E-09
  1.1941E-08
  1.1941E-08
  1.1941E-08
  1.1941E-08
  1.1941E-08
  1.1941E-08
  1.1941E-08
  1.1941E-08
  1.1941E-08
  4.4582E-08
  4.4582E-08
  4.4582E-08
  4.4582E-08
  4.4582E-08
  4.4582E-08
  4.4582E-08
  4.4582E-08
  4.4582E-08
  1.6645E-07
  1.6645E-07
  1.6645E-07
  1.6645E-07
  1.6645E-07
  1.6645E-07
  1.6645E-07
  1.6645E-07
  1.6645E-07
  6.2143E-07
  6.2143E-07
  6.2143E-07
  6.2143E-07
  6.2143E-07
  6.2143E-07
  6.2143E-07
  6.2143E-07
  6.2143E-07
  2.3201E-06
  2.3201E-06
  2.3201E-06
  2.3201E-06
  2.3201E-06
  2.3201E-06
  2.3201E-06
  2.3201E-06
  2.3201E-06
  8.6623E-06
  8.6623E-06
  8.6623E-06
  8.6623E-06
  8.6623E-06
  8.6623E-06
  8.6623E-06
  8.6623E-06
  8.6623E-06
  3.2341E-05
  3.2341E-05
  3.2341E-05
  3.2341E-05
  3.2341E-05
  3.2341E-05
  3.2341E-05
  3.2341E-05
  3.2341E-05
  1.2075E-04
  1.2075E-04
  1.2075E-04
  1.2075E-04
  1.2075E-04
  1.2075E-04
  1.2075E-04
  1.2075E-04
  1.2075E-04
  4.5081E-04
  4.5081E-04
  4.5081E-04
  4.5081E-04
  4.5081E-04
  4.5081E-04
  4.5081E-04
  4.5081E-04
  4.5081E-04
  1.6831E-03
  1.6831E-03
  1.6831E-03
  1.6831E-03
  1.6831E-03
  1.6831E-03
  1.6831E-03
  1.6831E-03
  1.6831E-03
  6.2839E-03
  6.2839E-03
  6.2839E-03
  6.2839E-03
  6.2839E-03
  6.2839E-03
  6.2839E-03
  6.2839E-03
  6.2839E-03
  2.3461E-02
  2.3461E-02
  2.3461E-02
  2.3461E-02
  2.3461E-02
  2.3461E-02
  2.3461E-02
  2.3461E-02
  2.3461E-02
  8.7592E-02
  8.7592E-02
  8.7592E-02
  8.7592E-02
  8.7592E-02
  8.7592E-02
  8.7592E-02
  8.7592E-02
  8.7592E-02
  3.2703E-01
  3.2703E-01
  3.2703E-01
  3.2703E-01
  3.2703E-01
  3.2703E-01
  3.2703E-01
  3.2703E-01
  3.2703E-01
  5.1588E-01
  5.1588E-01
  5.1588E-01
  5.1588E-01
  5.1588E-01
  5.1588E-01
  5.1588E-01
  5.1588E-01
  5.1588E-01
   1.7200E-02
  5.1484E-12
  5.1484E-12
  5.1484E-12
  5.1484E-12
  5.1484E-12
  5.1484E-12
  5.1484E-12
  5.1484E-12
  5.1484E-12
  1.5456E-11
  1.5456E-11
  1.5456E-11
  1.5456E-11
  1.5456E-11
  1.5456E-11
  1.5456E-11
  1.5456E-11
  1.5456E-11
  6.1851E-11
  6.1851E-11
  6.1851E-11
  6.1851E-11
  6.1851E-11
  6.1851E-11
  6.1851E-11
  6.1851E-11
  6.1851E-11
  2.3203E-10
  2.3203E-10
  2.3203E-10
  2.3203E-10
  2.3203E-10
  2.3203E-10
  2.3203E-10
  2.3203E-10
  2.3203E-10
  8.6660E-10
  8.6660E-10
  8.6660E-10
  8.6660E-10
  8.6660E-10
  8.6660E-10
  8.6660E-10
  8.6660E-10
  8.6660E-10
  3.2356E-09
  3.2356E-09
  3.2356E-09
  3.2356E-09
  3.2356E-09
  3.2356E-09
  3.2356E-09
  3.2356E-09
  3.2356E-09
  1.2080E-08
  1.2080E-08
  1.2080E-08
  1.2080E-08
  1.2080E-08
  1.2080E-08
  1.2080E-08
  1.2080E-08
  1.2080E-08
  4.5102E-08
  4.5102E-08
  4.5102E-08
  4.5102E-08
  4.5102E-08
  4.5102E-08
  4.5102E-08
  4.5102E-08
  4.5102E-08
  1.6839E-07
  1.6839E-07
  1.6839E-07
  1.6839E-07
  1.6839E-07
  1.6839E-07
  1.6839E-07
  1.6839E-07
  1.6839E-07
  6.2869E-07
  6.2869E-07
  6.2869E-07
  6.2869E-07
  6.2869E-07
  6.2869E-07
  6.2869E-07
  6.2869E-07
  6.2869E-07
  2.3472E-06
  2.3472E-06
  2.3472E-06
  2.3472E-06
  2.3472E-06
  2.3472E-06
  2.3472E-06
  2.3472E-06
  2.3472E-06
  8.7635E-06
  8.7635E-06
  8.7635E-06
  8.7635E-06
  8.7635E-06
  8.7635E-06
  8.7635E-06
  8.7635E-06
  8.7635E-06
  3.2719E-05
  3.2719E-05
  3.2719E-05
  3.2719E-05
  3.2719E-05
  3.2719E-05
  3.2719E-05
  3.2719E-05
  3.2719E-05
  1.2216E-04
  1.2216E-04
  1.2216E-04
  1.2216E-04
  1.2216E-04
  1.2216E-04
  1.2216E-04
  1.2216E-04
  1.2216E-04
  4.5608E-04
  4.5608E-04
  4.5608E-04
  4.5608E-04
  4.5608E-04
  4.5608E-04
  4.5608E-04
  4.5608E-04
  4.5608E-04
  1.7028E-03
  1.7028E-03
  1.7028E-03
  1.7028E-03
  1.7028E-03
  1.7028E-03
  1.7028E-03
  1.7028E-03
  1.7028E-03
  6.3575E-03
  6.3575E-03
  6.3575E-03
  6.3575E-03
  6.3575E-03
  6.3575E-03
  6.3575E-03
  6.3575E-03
  6.3575E-03
  2.3736E-02
  2.3736E-02
  2.3736E-02
  2.3736E-02
  2.3736E-02
  2.3736E-02
  2.3736E-02
  2.3736E-02
  2.3736E-02
  8.8619E-02
  8.8619E-02
  8.8619E-02
  8.8619E-02
  8.8619E-02
  8.8619E-02
  8.8619E-02
  8.8619E-02
  8.8619E-02
  3.3086E-01
  3.3086E-01
  3.3086E-01
  3.3086E-01
  3.3086E-01
  3.3086E-01
  3.3086E-01
  3.3086E-01
  3.3086E-01
  5.2193E-01
  5.2193E-01
  5.2193E-01
  5.2193E-01
  5.2193E-01
  5.2193E-01
  5.2193E-01
  5.2193E-01
  5.2193E-01
   1.7300E-02
  5.2080E-12
  5.2080E-12
  5.2080E-12
  5.2080E-12
  5.2080E-12
  5.2080E-12
  5.2080E-12
  5.2080E-12
  5.2080E-12
  1.5634E-11
  1.5634E-11
  1.5634E-11
  1.5634E-11
  1.5634E-11
  1.5634E-11
  1.5634E-11
  1.5634E-11
  1.5634E-11
  6.2567E-11
  6.2567E-11
  6.2567E-11
  6.2567E-11
  6.2567E-11
  6.2567E-11
  6.2567E-11
  6.2567E-11
  6.2567E-11
  2.3472E-10
  2.3472E-10
  2.3472E-10
  2.3472E-10
  2.3472E-10
  2.3472E-10
  2.3472E-10
  2.3472E-10
  2.3472E-10
  8.7664E-10
  8.7664E-10
  8.7664E-10
  8.7664E-10
  8.7664E-10
  8.7664E-10
  8.7664E-10
  8.7664E-10
  8.7664E-10
  3.2731E-09
  3.2731E-09
  3.2731E-09
  3.2731E-09
  3.2731E-09
  3.2731E-09
  3.2731E-09
  3.2731E-09
  3.2731E-09
  1.2220E-08
  1.2220E-08
  1.2220E-08
  1.2220E-08
  1.2220E-08
  1.2220E-08
  1.2220E-08
  1.2220E-08
  1.2220E-08
  4.5625E-08
  4.5625E-08
  4.5625E-08
  4.5625E-08
  4.5625E-08
  4.5625E-08
  4.5625E-08
  4.5625E-08
  4.5625E-08
  1.7034E-07
  1.7034E-07
  1.7034E-07
  1.7034E-07
  1.7034E-07
  1.7034E-07
  1.7034E-07
  1.7034E-07
  1.7034E-07
  6.3599E-07
  6.3599E-07
  6.3599E-07
  6.3599E-07
  6.3599E-07
  6.3599E-07
  6.3599E-07
  6.3599E-07
  6.3599E-07
  2.3745E-06
  2.3745E-06
  2.3745E-06
  2.3745E-06
  2.3745E-06
  2.3745E-06
  2.3745E-06
  2.3745E-06
  2.3745E-06
  8.8654E-06
  8.8654E-06
  8.8654E-06
  8.8654E-06
  8.8654E-06
  8.8654E-06
  8.8654E-06
  8.8654E-06
  8.8654E-06
  3.3099E-05
  3.3099E-05
  3.3099E-05
  3.3099E-05
  3.3099E-05
  3.3099E-05
  3.3099E-05
  3.3099E-05
  3.3099E-05
  1.2358E-04
  1.2358E-04
  1.2358E-04
  1.2358E-04
  1.2358E-04
  1.2358E-04
  1.2358E-04
  1.2358E-04
  1.2358E-04
  4.6139E-04
  4.6139E-04
  4.6139E-04
  4.6139E-04
  4.6139E-04
  4.6139E-04
  4.6139E-04
  4.6139E-04
  4.6139E-04
  1.7226E-03
  1.7226E-03
  1.7226E-03
  1.7226E-03
  1.7226E-03
  1.7226E-03
  1.7226E-03
  1.7226E-03
  1.7226E-03
  6.4315E-03
  6.4315E-03
  6.4315E-03
  6.4315E-03
  6.4315E-03
  6.4315E-03
  6.4315E-03
  6.4315E-03
  6.4315E-03
  2.4012E-02
  2.4012E-02
  2.4012E-02
  2.4012E-02
  2.4012E-02
  2.4012E-02
  2.4012E-02
  2.4012E-02
  2.4012E-02
  8.9652E-02
  8.9652E-02
  8.9652E-02
  8.9652E-02
  8.9652E-02
  8.9652E-02
  8.9652E-02
  8.9652E-02
  8.9652E-02
  3.3472E-01
  3.3472E-01
  3.3472E-01
  3.3472E-01
  3.3472E-01
  3.3472E-01
  3.3472E-01
  3.3472E-01
  3.3472E-01
  5.2802E-01
  5.2802E-01
  5.2802E-01
  5.2802E-01
  5.2802E-01
  5.2802E-01
  5.2802E-01
  5.2802E-01
  5.2802E-01
   1.7400E-02
  5.2678E-12
  5.2678E-12
  5.2678E-12
  5.2678E-12
  5.2678E-12
  5.2678E-12
  5.2678E-12
  5.2678E-12
  5.2678E-12
  1.5814E-11
  1.5814E-11
  1.5814E-11
  1.5814E-11
  1.5814E-11
  1.5814E-11
  1.5814E-11
  1.5814E-11
  1.5814E-11
  6.3287E-11
  6.3287E-11
  6.3287E-11
  6.3287E-11
  6.3287E-11
  6.3287E-11
  6.3287E-11
  6.3287E-11
  6.3287E-11
  2.3742E-10
  2.3742E-10
  2.3742E-10
  2.3742E-10
  2.3742E-10
  2.3742E-10
  2.3742E-10
  2.3742E-10
  2.3742E-10
  8.8674E-10
  8.8674E-10
  8.8674E-10
  8.8674E-10
  8.8674E-10
  8.8674E-10
  8.8674E-10
  8.8674E-10
  8.8674E-10
  3.3108E-09
  3.3108E-09
  3.3108E-09
  3.3108E-09
  3.3108E-09
  3.3108E-09
  3.3108E-09
  3.3108E-09
  3.3108E-09
  1.2361E-08
  1.2361E-08
  1.2361E-08
  1.2361E-08
  1.2361E-08
  1.2361E-08
  1.2361E-08
  1.2361E-08
  1.2361E-08
  4.6151E-08
  4.6151E-08
  4.6151E-08
  4.6151E-08
  4.6151E-08
  4.6151E-08
  4.6151E-08
  4.6151E-08
  4.6151E-08
  1.7231E-07
  1.7231E-07
  1.7231E-07
  1.7231E-07
  1.7231E-07
  1.7231E-07
  1.7231E-07
  1.7231E-07
  1.7231E-07
  6.4333E-07
  6.4333E-07
  6.4333E-07
  6.4333E-07
  6.4333E-07
  6.4333E-07
  6.4333E-07
  6.4333E-07
  6.4333E-07
  2.4019E-06
  2.4019E-06
  2.4019E-06
  2.4019E-06
  2.4019E-06
  2.4019E-06
  2.4019E-06
  2.4019E-06
  2.4019E-06
  8.9678E-06
  8.9678E-06
  8.9678E-06
  8.9678E-06
  8.9678E-06
  8.9678E-06
  8.9678E-06
  8.9678E-06
  8.9678E-06
  3.3482E-05
  3.3482E-05
  3.3482E-05
  3.3482E-05
  3.3482E-05
  3.3482E-05
  3.3482E-05
  3.3482E-05
  3.3482E-05
  1.2501E-04
  1.2501E-04
  1.2501E-04
  1.2501E-04
  1.2501E-04
  1.2501E-04
  1.2501E-04
  1.2501E-04
  1.2501E-04
  4.6673E-04
  4.6673E-04
  4.6673E-04
  4.6673E-04
  4.6673E-04
  4.6673E-04
  4.6673E-04
  4.6673E-04
  4.6673E-04
  1.7426E-03
  1.7426E-03
  1.7426E-03
  1.7426E-03
  1.7426E-03
  1.7426E-03
  1.7426E-03
  1.7426E-03
  1.7426E-03
  6.5060E-03
  6.5060E-03
  6.5060E-03
  6.5060E-03
  6.5060E-03
  6.5060E-03
  6.5060E-03
  6.5060E-03
  6.5060E-03
  2.4290E-02
  2.4290E-02
  2.4290E-02
  2.4290E-02
  2.4290E-02
  2.4290E-02
  2.4290E-02
  2.4290E-02
  2.4290E-02
  9.0690E-02
  9.0690E-02
  9.0690E-02
  9.0690E-02
  9.0690E-02
  9.0690E-02
  9.0690E-02
  9.0690E-02
  9.0690E-02
  3.3860E-01
  3.3860E-01
  3.3860E-01
  3.3860E-01
  3.3860E-01
  3.3860E-01
  3.3860E-01
  3.3860E-01
  3.3860E-01
  5.3414E-01
  5.3414E-01
  5.3414E-01
  5.3414E-01
  5.3414E-01
  5.3414E-01
  5.3414E-01
  5.3414E-01
  5.3414E-01
   1.7500E-02
  5.3280E-12
  5.3280E-12
  5.3280E-12
  5.3280E-12
  5.3280E-12
  5.3280E-12
  5.3280E-12
  5.3280E-12
  5.3280E-12
  1.5995E-11
  1.5995E-11
  1.5995E-11
  1.5995E-11
  1.5995E-11
  1.5995E-11
  1.5995E-11
  1.5995E-11
  1.5995E-11
  6.4011E-11
  6.4011E-11
  6.4011E-11
  6.4011E-11
  6.4011E-11
  6.4011E-11
  6.4011E-11
  6.4011E-11
  6.4011E-11
  2.4014E-10
  2.4014E-10
  2.4014E-10
  2.4014E-10
  2.4014E-10
  2.4014E-10
  2.4014E-10
  2.4014E-10
  2.4014E-10
  8.9690E-10
  8.9690E-10
  8.9690E-10
  8.9690E-10
  8.9690E-10
  8.9690E-10
  8.9690E-10
  8.9690E-10
  8.9690E-10
  3.3487E-09
  3.3487E-09
  3.3487E-09
  3.3487E-09
  3.3487E-09
  3.3487E-09
  3.3487E-09
  3.3487E-09
  3.3487E-09
  1.2503E-08
  1.2503E-08
  1.2503E-08
  1.2503E-08
  1.2503E-08
  1.2503E-08
  1.2503E-08
  1.2503E-08
  1.2503E-08
  4.6681E-08
  4.6681E-08
  4.6681E-08
  4.6681E-08
  4.6681E-08
  4.6681E-08
  4.6681E-08
  4.6681E-08
  4.6681E-08
  1.7429E-07
  1.7429E-07
  1.7429E-07
  1.7429E-07
  1.7429E-07
  1.7429E-07
  1.7429E-07
  1.7429E-07
  1.7429E-07
  6.5071E-07
  6.5071E-07
  6.5071E-07
  6.5071E-07
  6.5071E-07
  6.5071E-07
  6.5071E-07
  6.5071E-07
  6.5071E-07
  2.4295E-06
  2.4295E-06
  2.4295E-06
  2.4295E-06
  2.4295E-06
  2.4295E-06
  2.4295E-06
  2.4295E-06
  2.4295E-06
  9.0708E-06
  9.0708E-06
  9.0708E-06
  9.0708E-06
  9.0708E-06
  9.0708E-06
  9.0708E-06
  9.0708E-06
  9.0708E-06
  3.3867E-05
  3.3867E-05
  3.3867E-05
  3.3867E-05
  3.3867E-05
  3.3867E-05
  3.3867E-05
  3.3867E-05
  3.3867E-05
  1.2644E-04
  1.2644E-04
  1.2644E-04
  1.2644E-04
  1.2644E-04
  1.2644E-04
  1.2644E-04
  1.2644E-04
  1.2644E-04
  4.7209E-04
  4.7209E-04
  4.7209E-04
  4.7209E-04
  4.7209E-04
  4.7209E-04
  4.7209E-04
  4.7209E-04
  4.7209E-04
  1.7626E-03
  1.7626E-03
  1.7626E-03
  1.7626E-03
  1.7626E-03
  1.7626E-03
  1.7626E-03
  1.7626E-03
  1.7626E-03
  6.5808E-03
  6.5808E-03
  6.5808E-03
  6.5808E-03
  6.5808E-03
  6.5808E-03
  6.5808E-03
  6.5808E-03
  6.5808E-03
  2.4570E-02
  2.4570E-02
  2.4570E-02
  2.4570E-02
  2.4570E-02
  2.4570E-02
  2.4570E-02
  2.4570E-02
  2.4570E-02
  9.1735E-02
  9.1735E-02
  9.1735E-02
  9.1735E-02
  9.1735E-02
  9.1735E-02
  9.1735E-02
  9.1735E-02
  9.1735E-02
  3.4250E-01
  3.4250E-01
  3.4250E-01
  3.4250E-01
  3.4250E-01
  3.4250E-01
  3.4250E-01
  3.4250E-01
  3.4250E-01
  5.4029E-01
  5.4029E-01
  5.4029E-01
  5.4029E-01
  5.4029E-01
  5.4029E-01
  5.4029E-01
  5.4029E-01
  5.4029E-01
   1.7600E-02
  5.3886E-12
  5.3886E-12
  5.3886E-12
  5.3886E-12
  5.3886E-12
  5.3886E-12
  5.3886E-12
  5.3886E-12
  5.3886E-12
  1.6177E-11
  1.6177E-11
  1.6177E-11
  1.6177E-11
  1.6177E-11
  1.6177E-11
  1.6177E-11
  1.6177E-11
  1.6177E-11
  6.4739E-11
  6.4739E-11
  6.4739E-11
  6.4739E-11
  6.4739E-11
  6.4739E-11
  6.4739E-11
  6.4739E-11
  6.4739E-11
  2.4287E-10
  2.4287E-10
  2.4287E-10
  2.4287E-10
  2.4287E-10
  2.4287E-10
  2.4287E-10
  2.4287E-10
  2.4287E-10
  9.0711E-10
  9.0711E-10
  9.0711E-10
  9.0711E-10
  9.0711E-10
  9.0711E-10
  9.0711E-10
  9.0711E-10
  9.0711E-10
  3.3869E-09
  3.3869E-09
  3.3869E-09
  3.3869E-09
  3.3869E-09
  3.3869E-09
  3.3869E-09
  3.3869E-09
  3.3869E-09
  1.2645E-08
  1.2645E-08
  1.2645E-08
  1.2645E-08
  1.2645E-08
  1.2645E-08
  1.2645E-08
  1.2645E-08
  1.2645E-08
  4.7213E-08
  4.7213E-08
  4.7213E-08
  4.7213E-08
  4.7213E-08
  4.7213E-08
  4.7213E-08
  4.7213E-08
  4.7213E-08
  1.7627E-07
  1.7627E-07
  1.7627E-07
  1.7627E-07
  1.7627E-07
  1.7627E-07
  1.7627E-07
  1.7627E-07
  1.7627E-07
  6.5814E-07
  6.5814E-07
  6.5814E-07
  6.5814E-07
  6.5814E-07
  6.5814E-07
  6.5814E-07
  6.5814E-07
  6.5814E-07
  2.4572E-06
  2.4572E-06
  2.4572E-06
  2.4572E-06
  2.4572E-06
  2.4572E-06
  2.4572E-06
  2.4572E-06
  2.4572E-06
  9.1744E-06
  9.1744E-06
  9.1744E-06
  9.1744E-06
  9.1744E-06
  9.1744E-06
  9.1744E-06
  9.1744E-06
  9.1744E-06
  3.4254E-05
  3.4254E-05
  3.4254E-05
  3.4254E-05
  3.4254E-05
  3.4254E-05
  3.4254E-05
  3.4254E-05
  3.4254E-05
  1.2789E-04
  1.2789E-04
  1.2789E-04
  1.2789E-04
  1.2789E-04
  1.2789E-04
  1.2789E-04
  1.2789E-04
  1.2789E-04
  4.7749E-04
  4.7749E-04
  4.7749E-04
  4.7749E-04
  4.7749E-04
  4.7749E-04
  4.7749E-04
  4.7749E-04
  4.7749E-04
  1.7828E-03
  1.7828E-03
  1.7828E-03
  1.7828E-03
  1.7828E-03
  1.7828E-03
  1.7828E-03
  1.7828E-03
  1.7828E-03
  6.6561E-03
  6.6561E-03
  6.6561E-03
  6.6561E-03
  6.6561E-03
  6.6561E-03
  6.6561E-03
  6.6561E-03
  6.6561E-03
  2.4851E-02
  2.4851E-02
  2.4851E-02
  2.4851E-02
  2.4851E-02
  2.4851E-02
  2.4851E-02
  2.4851E-02
  2.4851E-02
  9.2786E-02
  9.2786E-02
  9.2786E-02
  9.2786E-02
  9.2786E-02
  9.2786E-02
  9.2786E-02
  9.2786E-02
  9.2786E-02
  3.4643E-01
  3.4643E-01
  3.4643E-01
  3.4643E-01
  3.4643E-01
  3.4643E-01
  3.4643E-01
  3.4643E-01
  3.4643E-01
  5.4648E-01
  5.4648E-01
  5.4648E-01
  5.4648E-01
  5.4648E-01
  5.4648E-01
  5.4648E-01
  5.4648E-01
  5.4648E-01
   1.7700E-02
  5.4495E-12
  5.4495E-12
  5.4495E-12
  5.4495E-12
  5.4495E-12
  5.4495E-12
  5.4495E-12
  5.4495E-12
  5.4495E-12
  1.6360E-11
  1.6360E-11
  1.6360E-11
  1.6360E-11
  1.6360E-11
  1.6360E-11
  1.6360E-11
  1.6360E-11
  1.6360E-11
  6.5471E-11
  6.5471E-11
  6.5471E-11
  6.5471E-11
  6.5471E-11
  6.5471E-11
  6.5471E-11
  6.5471E-11
  6.5471E-11
  2.4562E-10
  2.4562E-10
  2.4562E-10
  2.4562E-10
  2.4562E-10
  2.4562E-10
  2.4562E-10
  2.4562E-10
  2.4562E-10
  9.1737E-10
  9.1737E-10
  9.1737E-10
  9.1737E-10
  9.1737E-10
  9.1737E-10
  9.1737E-10
  9.1737E-10
  9.1737E-10
  3.4252E-09
  3.4252E-09
  3.4252E-09
  3.4252E-09
  3.4252E-09
  3.4252E-09
  3.4252E-09
  3.4252E-09
  3.4252E-09
  1.2789E-08
  1.2789E-08
  1.2789E-08
  1.2789E-08
  1.2789E-08
  1.2789E-08
  1.2789E-08
  1.2789E-08
  1.2789E-08
  4.7748E-08
  4.7748E-08
  4.7748E-08
  4.7748E-08
  4.7748E-08
  4.7748E-08
  4.7748E-08
  4.7748E-08
  4.7748E-08
  1.7827E-07
  1.7827E-07
  1.7827E-07
  1.7827E-07
  1.7827E-07
  1.7827E-07
  1.7827E-07
  1.7827E-07
  1.7827E-07
  6.6560E-07
  6.6560E-07
  6.6560E-07
  6.6560E-07
  6.6560E-07
  6.6560E-07
  6.6560E-07
  6.6560E-07
  6.6560E-07
  2.4851E-06
  2.4851E-06
  2.4851E-06
  2.4851E-06
  2.4851E-06
  2.4851E-06
  2.4851E-06
  2.4851E-06
  2.4851E-06
  9.2785E-06
  9.2785E-06
  9.2785E-06
  9.2785E-06
  9.2785E-06
  9.2785E-06
  9.2785E-06
  9.2785E-06
  9.2785E-06
  3.4643E-05
  3.4643E-05
  3.4643E-05
  3.4643E-05
  3.4643E-05
  3.4643E-05
  3.4643E-05
  3.4643E-05
  3.4643E-05
  1.2934E-04
  1.2934E-04
  1.2934E-04
  1.2934E-04
  1.2934E-04
  1.2934E-04
  1.2934E-04
  1.2934E-04
  1.2934E-04
  4.8292E-04
  4.8292E-04
  4.8292E-04
  4.8292E-04
  4.8292E-04
  4.8292E-04
  4.8292E-04
  4.8292E-04
  4.8292E-04
  1.8030E-03
  1.8030E-03
  1.8030E-03
  1.8030E-03
  1.8030E-03
  1.8030E-03
  1.8030E-03
  1.8030E-03
  1.8030E-03
  6.7319E-03
  6.7319E-03
  6.7319E-03
  6.7319E-03
  6.7319E-03
  6.7319E-03
  6.7319E-03
  6.7319E-03
  6.7319E-03
  2.5134E-02
  2.5134E-02
  2.5134E-02
  2.5134E-02
  2.5134E-02
  2.5134E-02
  2.5134E-02
  2.5134E-02
  2.5134E-02
  9.3842E-02
  9.3842E-02
  9.3842E-02
  9.3842E-02
  9.3842E-02
  9.3842E-02
  9.3842E-02
  9.3842E-02
  9.3842E-02
  3.5037E-01
  3.5037E-01
  3.5037E-01
  3.5037E-01
  3.5037E-01
  3.5037E-01
  3.5037E-01
  3.5037E-01
  3.5037E-01
  5.5271E-01
  5.5271E-01
  5.5271E-01
  5.5271E-01
  5.5271E-01
  5.5271E-01
  5.5271E-01
  5.5271E-01
  5.5271E-01
   1.7800E-02
  5.5107E-12
  5.5107E-12
  5.5107E-12
  5.5107E-12
  5.5107E-12
  5.5107E-12
  5.5107E-12
  5.5107E-12
  5.5107E-12
  1.6544E-11
  1.6544E-11
  1.6544E-11
  1.6544E-11
  1.6544E-11
  1.6544E-11
  1.6544E-11
  1.6544E-11
  1.6544E-11
  6.6207E-11
  6.6207E-11
  6.6207E-11
  6.6207E-11
  6.6207E-11
  6.6207E-11
  6.6207E-11
  6.6207E-11
  6.6207E-11
  2.4838E-10
  2.4838E-10
  2.4838E-10
  2.4838E-10
  2.4838E-10
  2.4838E-10
  2.4838E-10
  2.4838E-10
  2.4838E-10
  9.2770E-10
  9.2770E-10
  9.2770E-10
  9.2770E-10
  9.2770E-10
  9.2770E-10
  9.2770E-10
  9.2770E-10
  9.2770E-10
  3.4638E-09
  3.4638E-09
  3.4638E-09
  3.4638E-09
  3.4638E-09
  3.4638E-09
  3.4638E-09
  3.4638E-09
  3.4638E-09
  1.2933E-08
  1.2933E-08
  1.2933E-08
  1.2933E-08
  1.2933E-08
  1.2933E-08
  1.2933E-08
  1.2933E-08
  1.2933E-08
  4.8286E-08
  4.8286E-08
  4.8286E-08
  4.8286E-08
  4.8286E-08
  4.8286E-08
  4.8286E-08
  4.8286E-08
  4.8286E-08
  1.8028E-07
  1.8028E-07
  1.8028E-07
  1.8028E-07
  1.8028E-07
  1.8028E-07
  1.8028E-07
  1.8028E-07
  1.8028E-07
  6.7311E-07
  6.7311E-07
  6.7311E-07
  6.7311E-07
  6.7311E-07
  6.7311E-07
  6.7311E-07
  6.7311E-07
  6.7311E-07
  2.5132E-06
  2.5132E-06
  2.5132E-06
  2.5132E-06
  2.5132E-06
  2.5132E-06
  2.5132E-06
  2.5132E-06
  2.5132E-06
  9.3833E-06
  9.3833E-06
  9.3833E-06
  9.3833E-06
  9.3833E-06
  9.3833E-06
  9.3833E-06
  9.3833E-06
  9.3833E-06
  3.5034E-05
  3.5034E-05
  3.5034E-05
  3.5034E-05
  3.5034E-05
  3.5034E-05
  3.5034E-05
  3.5034E-05
  3.5034E-05
  1.3080E-04
  1.3080E-04
  1.3080E-04
  1.3080E-04
  1.3080E-04
  1.3080E-04
  1.3080E-04
  1.3080E-04
  1.3080E-04
  4.8838E-04
  4.8838E-04
  4.8838E-04
  4.8838E-04
  4.8838E-04
  4.8838E-04
  4.8838E-04
  4.8838E-04
  4.8838E-04
  1.8234E-03
  1.8234E-03
  1.8234E-03
  1.8234E-03
  1.8234E-03
  1.8234E-03
  1.8234E-03
  1.8234E-03
  1.8234E-03
  6.8080E-03
  6.8080E-03
  6.8080E-03
  6.8080E-03
  6.8080E-03
  6.8080E-03
  6.8080E-03
  6.8080E-03
  6.8080E-03
  2.5419E-02
  2.5419E-02
  2.5419E-02
  2.5419E-02
  2.5419E-02
  2.5419E-02
  2.5419E-02
  2.5419E-02
  2.5419E-02
  9.4905E-02
  9.4905E-02
  9.4905E-02
  9.4905E-02
  9.4905E-02
  9.4905E-02
  9.4905E-02
  9.4905E-02
  9.4905E-02
  3.5434E-01
  3.5434E-01
  3.5434E-01
  3.5434E-01
  3.5434E-01
  3.5434E-01
  3.5434E-01
  3.5434E-01
  3.5434E-01
  5.5897E-01
  5.5897E-01
  5.5897E-01
  5.5897E-01
  5.5897E-01
  5.5897E-01
  5.5897E-01
  5.5897E-01
  5.5897E-01
   1.7900E-02
  5.5722E-12
  5.5722E-12
  5.5722E-12
  5.5722E-12
  5.5722E-12
  5.5722E-12
  5.5722E-12
  5.5722E-12
  5.5722E-12
  1.6729E-11
  1.6729E-11
  1.6729E-11
  1.6729E-11
  1.6729E-11
  1.6729E-11
  1.6729E-11
  1.6729E-11
  1.6729E-11
  6.6948E-11
  6.6948E-11
  6.6948E-11
  6.6948E-11
  6.6948E-11
  6.6948E-11
  6.6948E-11
  6.6948E-11
  6.6948E-11
  2.5116E-10
  2.5116E-10
  2.5116E-10
  2.5116E-10
  2.5116E-10
  2.5116E-10
  2.5116E-10
  2.5116E-10
  2.5116E-10
  9.3808E-10
  9.3808E-10
  9.3808E-10
  9.3808E-10
  9.3808E-10
  9.3808E-10
  9.3808E-10
  9.3808E-10
  9.3808E-10
  3.5026E-09
  3.5026E-09
  3.5026E-09
  3.5026E-09
  3.5026E-09
  3.5026E-09
  3.5026E-09
  3.5026E-09
  3.5026E-09
  1.3077E-08
  1.3077E-08
  1.3077E-08
  1.3077E-08
  1.3077E-08
  1.3077E-08
  1.3077E-08
  1.3077E-08
  1.3077E-08
  4.8827E-08
  4.8827E-08
  4.8827E-08
  4.8827E-08
  4.8827E-08
  4.8827E-08
  4.8827E-08
  4.8827E-08
  4.8827E-08
  1.8230E-07
  1.8230E-07
  1.8230E-07
  1.8230E-07
  1.8230E-07
  1.8230E-07
  1.8230E-07
  1.8230E-07
  1.8230E-07
  6.8066E-07
  6.8066E-07
  6.8066E-07
  6.8066E-07
  6.8066E-07
  6.8066E-07
  6.8066E-07
  6.8066E-07
  6.8066E-07
  2.5414E-06
  2.5414E-06
  2.5414E-06
  2.5414E-06
  2.5414E-06
  2.5414E-06
  2.5414E-06
  2.5414E-06
  2.5414E-06
  9.4886E-06
  9.4886E-06
  9.4886E-06
  9.4886E-06
  9.4886E-06
  9.4886E-06
  9.4886E-06
  9.4886E-06
  9.4886E-06
  3.5427E-05
  3.5427E-05
  3.5427E-05
  3.5427E-05
  3.5427E-05
  3.5427E-05
  3.5427E-05
  3.5427E-05
  3.5427E-05
  1.3227E-04
  1.3227E-04
  1.3227E-04
  1.3227E-04
  1.3227E-04
  1.3227E-04
  1.3227E-04
  1.3227E-04
  1.3227E-04
  4.9387E-04
  4.9387E-04
  4.9387E-04
  4.9387E-04
  4.9387E-04
  4.9387E-04
  4.9387E-04
  4.9387E-04
  4.9387E-04
  1.8439E-03
  1.8439E-03
  1.8439E-03
  1.8439E-03
  1.8439E-03
  1.8439E-03
  1.8439E-03
  1.8439E-03
  1.8439E-03
  6.8846E-03
  6.8846E-03
  6.8846E-03
  6.8846E-03
  6.8846E-03
  6.8846E-03
  6.8846E-03
  6.8846E-03
  6.8846E-03
  2.5705E-02
  2.5705E-02
  2.5705E-02
  2.5705E-02
  2.5705E-02
  2.5705E-02
  2.5705E-02
  2.5705E-02
  2.5705E-02
  9.5973E-02
  9.5973E-02
  9.5973E-02
  9.5973E-02
  9.5973E-02
  9.5973E-02
  9.5973E-02
  9.5973E-02
  9.5973E-02
  3.5833E-01
  3.5833E-01
  3.5833E-01
  3.5833E-01
  3.5833E-01
  3.5833E-01
  3.5833E-01
  3.5833E-01
  3.5833E-01
  5.6527E-01
  5.6527E-01
  5.6527E-01
  5.6527E-01
  5.6527E-01
  5.6527E-01
  5.6527E-01
  5.6527E-01
  5.6527E-01
   1.8000E-02
  5.6341E-12
  5.6341E-12
  5.6341E-12
  5.6341E-12
  5.6341E-12
  5.6341E-12
  5.6341E-12
  5.6341E-12
  5.6341E-12
  1.6915E-11
  1.6915E-11
  1.6915E-11
  1.6915E-11
  1.6915E-11
  1.6915E-11
  1.6915E-11
  1.6915E-11
  1.6915E-11
  6.7692E-11
  6.7692E-11
  6.7692E-11
  6.7692E-11
  6.7692E-11
  6.7692E-11
  6.7692E-11
  6.7692E-11
  6.7692E-11
  2.5396E-10
  2.5396E-10
  2.5396E-10
  2.5396E-10
  2.5396E-10
  2.5396E-10
  2.5396E-10
  2.5396E-10
  2.5396E-10
  9.4852E-10
  9.4852E-10
  9.4852E-10
  9.4852E-10
  9.4852E-10
  9.4852E-10
  9.4852E-10
  9.4852E-10
  9.4852E-10
  3.5416E-09
  3.5416E-09
  3.5416E-09
  3.5416E-09
  3.5416E-09
  3.5416E-09
  3.5416E-09
  3.5416E-09
  3.5416E-09
  1.3223E-08
  1.3223E-08
  1.3223E-08
  1.3223E-08
  1.3223E-08
  1.3223E-08
  1.3223E-08
  1.3223E-08
  1.3223E-08
  4.9371E-08
  4.9371E-08
  4.9371E-08
  4.9371E-08
  4.9371E-08
  4.9371E-08
  4.9371E-08
  4.9371E-08
  4.9371E-08
  1.8434E-07
  1.8434E-07
  1.8434E-07
  1.8434E-07
  1.8434E-07
  1.8434E-07
  1.8434E-07
  1.8434E-07
  1.8434E-07
  6.8825E-07
  6.8825E-07
  6.8825E-07
  6.8825E-07
  6.8825E-07
  6.8825E-07
  6.8825E-07
  6.8825E-07
  6.8825E-07
  2.5697E-06
  2.5697E-06
  2.5697E-06
  2.5697E-06
  2.5697E-06
  2.5697E-06
  2.5697E-06
  2.5697E-06
  2.5697E-06
  9.5945E-06
  9.5945E-06
  9.5945E-06
  9.5945E-06
  9.5945E-06
  9.5945E-06
  9.5945E-06
  9.5945E-06
  9.5945E-06
  3.5823E-05
  3.5823E-05
  3.5823E-05
  3.5823E-05
  3.5823E-05
  3.5823E-05
  3.5823E-05
  3.5823E-05
  3.5823E-05
  1.3375E-04
  1.3375E-04
  1.3375E-04
  1.3375E-04
  1.3375E-04
  1.3375E-04
  1.3375E-04
  1.3375E-04
  1.3375E-04
  4.9938E-04
  4.9938E-04
  4.9938E-04
  4.9938E-04
  4.9938E-04
  4.9938E-04
  4.9938E-04
  4.9938E-04
  4.9938E-04
  1.8645E-03
  1.8645E-03
  1.8645E-03
  1.8645E-03
  1.8645E-03
  1.8645E-03
  1.8645E-03
  1.8645E-03
  1.8645E-03
  6.9616E-03
  6.9616E-03
  6.9616E-03
  6.9616E-03
  6.9616E-03
  6.9616E-03
  6.9616E-03
  6.9616E-03
  6.9616E-03
  2.5992E-02
  2.5992E-02
  2.5992E-02
  2.5992E-02
  2.5992E-02
  2.5992E-02
  2.5992E-02
  2.5992E-02
  2.5992E-02
  9.7048E-02
  9.7048E-02
  9.7048E-02
  9.7048E-02
  9.7048E-02
  9.7048E-02
  9.7048E-02
  9.7048E-02
  9.7048E-02
  3.6234E-01
  3.6234E-01
  3.6234E-01
  3.6234E-01
  3.6234E-01
  3.6234E-01
  3.6234E-01
  3.6234E-01
  3.6234E-01
  5.7160E-01
  5.7160E-01
  5.7160E-01
  5.7160E-01
  5.7160E-01
  5.7160E-01
  5.7160E-01
  5.7160E-01
  5.7160E-01
   1.8100E-02
  5.6963E-12
  5.6963E-12
  5.6963E-12
  5.6963E-12
  5.6963E-12
  5.6963E-12
  5.6963E-12
  5.6963E-12
  5.6963E-12
  1.7101E-11
  1.7101E-11
  1.7101E-11
  1.7101E-11
  1.7101E-11
  1.7101E-11
  1.7101E-11
  1.7101E-11
  1.7101E-11
  6.8440E-11
  6.8440E-11
  6.8440E-11
  6.8440E-11
  6.8440E-11
  6.8440E-11
  6.8440E-11
  6.8440E-11
  6.8440E-11
  2.5676E-10
  2.5676E-10
  2.5676E-10
  2.5676E-10
  2.5676E-10
  2.5676E-10
  2.5676E-10
  2.5676E-10
  2.5676E-10
  9.5901E-10
  9.5901E-10
  9.5901E-10
  9.5901E-10
  9.5901E-10
  9.5901E-10
  9.5901E-10
  9.5901E-10
  9.5901E-10
  3.5808E-09
  3.5808E-09
  3.5808E-09
  3.5808E-09
  3.5808E-09
  3.5808E-09
  3.5808E-09
  3.5808E-09
  3.5808E-09
  1.3370E-08
  1.3370E-08
  1.3370E-08
  1.3370E-08
  1.3370E-08
  1.3370E-08
  1.3370E-08
  1.3370E-08
  1.3370E-08
  4.9918E-08
  4.9918E-08
  4.9918E-08
  4.9918E-08
  4.9918E-08
  4.9918E-08
  4.9918E-08
  4.9918E-08
  4.9918E-08
  1.8638E-07
  1.8638E-07
  1.8638E-07
  1.8638E-07
  1.8638E-07
  1.8638E-07
  1.8638E-07
  1.8638E-07
  1.8638E-07
  6.9588E-07
  6.9588E-07
  6.9588E-07
  6.9588E-07
  6.9588E-07
  6.9588E-07
  6.9588E-07
  6.9588E-07
  6.9588E-07
  2.5982E-06
  2.5982E-06
  2.5982E-06
  2.5982E-06
  2.5982E-06
  2.5982E-06
  2.5982E-06
  2.5982E-06
  2.5982E-06
  9.7010E-06
  9.7010E-06
  9.7010E-06
  9.7010E-06
  9.7010E-06
  9.7010E-06
  9.7010E-06
  9.7010E-06
  9.7010E-06
  3.6221E-05
  3.6221E-05
  3.6221E-05
  3.6221E-05
  3.6221E-05
  3.6221E-05
  3.6221E-05
  3.6221E-05
  3.6221E-05
  1.3524E-04
  1.3524E-04
  1.3524E-04
  1.3524E-04
  1.3524E-04
  1.3524E-04
  1.3524E-04
  1.3524E-04
  1.3524E-04
  5.0493E-04
  5.0493E-04
  5.0493E-04
  5.0493E-04
  5.0493E-04
  5.0493E-04
  5.0493E-04
  5.0493E-04
  5.0493E-04
  1.8853E-03
  1.8853E-03
  1.8853E-03
  1.8853E-03
  1.8853E-03
  1.8853E-03
  1.8853E-03
  1.8853E-03
  1.8853E-03
  7.0391E-03
  7.0391E-03
  7.0391E-03
  7.0391E-03
  7.0391E-03
  7.0391E-03
  7.0391E-03
  7.0391E-03
  7.0391E-03
  2.6282E-02
  2.6282E-02
  2.6282E-02
  2.6282E-02
  2.6282E-02
  2.6282E-02
  2.6282E-02
  2.6282E-02
  2.6282E-02
  9.8128E-02
  9.8128E-02
  9.8128E-02
  9.8128E-02
  9.8128E-02
  9.8128E-02
  9.8128E-02
  9.8128E-02
  9.8128E-02
  3.6638E-01
  3.6638E-01
  3.6638E-01
  3.6638E-01
  3.6638E-01
  3.6638E-01
  3.6638E-01
  3.6638E-01
  3.6638E-01
  5.7796E-01
  5.7796E-01
  5.7796E-01
  5.7796E-01
  5.7796E-01
  5.7796E-01
  5.7796E-01
  5.7796E-01
  5.7796E-01
   1.8200E-02
  5.7588E-12
  5.7588E-12
  5.7588E-12
  5.7588E-12
  5.7588E-12
  5.7588E-12
  5.7588E-12
  5.7588E-12
  5.7588E-12
  1.7289E-11
  1.7289E-11
  1.7289E-11
  1.7289E-11
  1.7289E-11
  1.7289E-11
  1.7289E-11
  1.7289E-11
  1.7289E-11
  6.9192E-11
  6.9192E-11
  6.9192E-11
  6.9192E-11
  6.9192E-11
  6.9192E-11
  6.9192E-11
  6.9192E-11
  6.9192E-11
  2.5959E-10
  2.5959E-10
  2.5959E-10
  2.5959E-10
  2.5959E-10
  2.5959E-10
  2.5959E-10
  2.5959E-10
  2.5959E-10
  9.6956E-10
  9.6956E-10
  9.6956E-10
  9.6956E-10
  9.6956E-10
  9.6956E-10
  9.6956E-10
  9.6956E-10
  9.6956E-10
  3.6202E-09
  3.6202E-09
  3.6202E-09
  3.6202E-09
  3.6202E-09
  3.6202E-09
  3.6202E-09
  3.6202E-09
  3.6202E-09
  1.3517E-08
  1.3517E-08
  1.3517E-08
  1.3517E-08
  1.3517E-08
  1.3517E-08
  1.3517E-08
  1.3517E-08
  1.3517E-08
  5.0468E-08
  5.0468E-08
  5.0468E-08
  5.0468E-08
  5.0468E-08
  5.0468E-08
  5.0468E-08
  5.0468E-08
  5.0468E-08
  1.8843E-07
  1.8843E-07
  1.8843E-07
  1.8843E-07
  1.8843E-07
  1.8843E-07
  1.8843E-07
  1.8843E-07
  1.8843E-07
  7.0356E-07
  7.0356E-07
  7.0356E-07
  7.0356E-07
  7.0356E-07
  7.0356E-07
  7.0356E-07
  7.0356E-07
  7.0356E-07
  2.6269E-06
  2.6269E-06
  2.6269E-06
  2.6269E-06
  2.6269E-06
  2.6269E-06
  2.6269E-06
  2.6269E-06
  2.6269E-06
  9.8080E-06
  9.8080E-06
  9.8080E-06
  9.8080E-06
  9.8080E-06
  9.8080E-06
  9.8080E-06
  9.8080E-06
  9.8080E-06
  3.6621E-05
  3.6621E-05
  3.6621E-05
  3.6621E-05
  3.6621E-05
  3.6621E-05
  3.6621E-05
  3.6621E-05
  3.6621E-05
  1.3673E-04
  1.3673E-04
  1.3673E-04
  1.3673E-04
  1.3673E-04
  1.3673E-04
  1.3673E-04
  1.3673E-04
  1.3673E-04
  5.1051E-04
  5.1051E-04
  5.1051E-04
  5.1051E-04
  5.1051E-04
  5.1051E-04
  5.1051E-04
  5.1051E-04
  5.1051E-04
  1.9061E-03
  1.9061E-03
  1.9061E-03
  1.9061E-03
  1.9061E-03
  1.9061E-03
  1.9061E-03
  1.9061E-03
  1.9061E-03
  7.1169E-03
  7.1169E-03
  7.1169E-03
  7.1169E-03
  7.1169E-03
  7.1169E-03
  7.1169E-03
  7.1169E-03
  7.1169E-03
  2.6573E-02
  2.6573E-02
  2.6573E-02
  2.6573E-02
  2.6573E-02
  2.6573E-02
  2.6573E-02
  2.6573E-02
  2.6573E-02
  9.9214E-02
  9.9214E-02
  9.9214E-02
  9.9214E-02
  9.9214E-02
  9.9214E-02
  9.9214E-02
  9.9214E-02
  9.9214E-02
  3.7044E-01
  3.7044E-01
  3.7044E-01
  3.7044E-01
  3.7044E-01
  3.7044E-01
  3.7044E-01
  3.7044E-01
  3.7044E-01
  5.8437E-01
  5.8437E-01
  5.8437E-01
  5.8437E-01
  5.8437E-01
  5.8437E-01
  5.8437E-01
  5.8437E-01
  5.8437E-01
   1.8300E-02
  5.8217E-12
  5.8217E-12
  5.8217E-12
  5.8217E-12
  5.8217E-12
  5.8217E-12
  5.8217E-12
  5.8217E-12
  5.8217E-12
  1.7478E-11
  1.7478E-11
  1.7478E-11
  1.7478E-11
  1.7478E-11
  1.7478E-11
  1.7478E-11
  1.7478E-11
  1.7478E-11
  6.9949E-11
  6.9949E-11
  6.9949E-11
  6.9949E-11
  6.9949E-11
  6.9949E-11
  6.9949E-11
  6.9949E-11
  6.9949E-11
  2.6243E-10
  2.6243E-10
  2.6243E-10
  2.6243E-10
  2.6243E-10
  2.6243E-10
  2.6243E-10
  2.6243E-10
  2.6243E-10
  9.8017E-10
  9.8017E-10
  9.8017E-10
  9.8017E-10
  9.8017E-10
  9.8017E-10
  9.8017E-10
  9.8017E-10
  9.8017E-10
  3.6598E-09
  3.6598E-09
  3.6598E-09
  3.6598E-09
  3.6598E-09
  3.6598E-09
  3.6598E-09
  3.6598E-09
  3.6598E-09
  1.3665E-08
  1.3665E-08
  1.3665E-08
  1.3665E-08
  1.3665E-08
  1.3665E-08
  1.3665E-08
  1.3665E-08
  1.3665E-08
  5.1021E-08
  5.1021E-08
  5.1021E-08
  5.1021E-08
  5.1021E-08
  5.1021E-08
  5.1021E-08
  5.1021E-08
  5.1021E-08
  1.9050E-07
  1.9050E-07
  1.9050E-07
  1.9050E-07
  1.9050E-07
  1.9050E-07
  1.9050E-07
  1.9050E-07
  1.9050E-07
  7.1127E-07
  7.1127E-07
  7.1127E-07
  7.1127E-07
  7.1127E-07
  7.1127E-07
  7.1127E-07
  7.1127E-07
  7.1127E-07
  2.6557E-06
  2.6557E-06
  2.6557E-06
  2.6557E-06
  2.6557E-06
  2.6557E-06
  2.6557E-06
  2.6557E-06
  2.6557E-06
  9.9157E-06
  9.9157E-06
  9.9157E-06
  9.9157E-06
  9.9157E-06
  9.9157E-06
  9.9157E-06
  9.9157E-06
  9.9157E-06
  3.7023E-05
  3.7023E-05
  3.7023E-05
  3.7023E-05
  3.7023E-05
  3.7023E-05
  3.7023E-05
  3.7023E-05
  3.7023E-05
  1.3823E-04
  1.3823E-04
  1.3823E-04
  1.3823E-04
  1.3823E-04
  1.3823E-04
  1.3823E-04
  1.3823E-04
  1.3823E-04
  5.1613E-04
  5.1613E-04
  5.1613E-04
  5.1613E-04
  5.1613E-04
  5.1613E-04
  5.1613E-04
  5.1613E-04
  5.1613E-04
  1.9271E-03
  1.9271E-03
  1.9271E-03
  1.9271E-03
  1.9271E-03
  1.9271E-03
  1.9271E-03
  1.9271E-03
  1.9271E-03
  7.1952E-03
  7.1952E-03
  7.1952E-03
  7.1952E-03
  7.1952E-03
  7.1952E-03
  7.1952E-03
  7.1952E-03
  7.1952E-03
  2.6865E-02
  2.6865E-02
  2.6865E-02
  2.6865E-02
  2.6865E-02
  2.6865E-02
  2.6865E-02
  2.6865E-02
  2.6865E-02
  1.0031E-01
  1.0031E-01
  1.0031E-01
  1.0031E-01
  1.0031E-01
  1.0031E-01
  1.0031E-01
  1.0031E-01
  1.0031E-01
  3.7452E-01
  3.7452E-01
  3.7452E-01
  3.7452E-01
  3.7452E-01
  3.7452E-01
  3.7452E-01
  3.7452E-01
  3.7452E-01
  5.9080E-01
  5.9080E-01
  5.9080E-01
  5.9080E-01
  5.9080E-01
  5.9080E-01
  5.9080E-01
  5.9080E-01
  5.9080E-01
   1.8400E-02
  5.8848E-12
  5.8848E-12
  5.8848E-12
  5.8848E-12
  5.8848E-12
  5.8848E-12
  5.8848E-12
  5.8848E-12
  5.8848E-12
  1.7668E-11
  1.7668E-11
  1.7668E-11
  1.7668E-11
  1.7668E-11
  1.7668E-11
  1.7668E-11
  1.7668E-11
  1.7668E-11
  7.0709E-11
  7.0709E-11
  7.0709E-11
  7.0709E-11
  7.0709E-11
  7.0709E-11
  7.0709E-11
  7.0709E-11
  7.0709E-11
  2.6528E-10
  2.6528E-10
  2.6528E-10
  2.6528E-10
  2.6528E-10
  2.6528E-10
  2.6528E-10
  2.6528E-10
  2.6528E-10
  9.9083E-10
  9.9083E-10
  9.9083E-10
  9.9083E-10
  9.9083E-10
  9.9083E-10
  9.9083E-10
  9.9083E-10
  9.9083E-10
  3.6996E-09
  3.6996E-09
  3.6996E-09
  3.6996E-09
  3.6996E-09
  3.6996E-09
  3.6996E-09
  3.6996E-09
  3.6996E-09
  1.3814E-08
  1.3814E-08
  1.3814E-08
  1.3814E-08
  1.3814E-08
  1.3814E-08
  1.3814E-08
  1.3814E-08
  1.3814E-08
  5.1577E-08
  5.1577E-08
  5.1577E-08
  5.1577E-08
  5.1577E-08
  5.1577E-08
  5.1577E-08
  5.1577E-08
  5.1577E-08
  1.9257E-07
  1.9257E-07
  1.9257E-07
  1.9257E-07
  1.9257E-07
  1.9257E-07
  1.9257E-07
  1.9257E-07
  1.9257E-07
  7.1903E-07
  7.1903E-07
  7.1903E-07
  7.1903E-07
  7.1903E-07
  7.1903E-07
  7.1903E-07
  7.1903E-07
  7.1903E-07
  2.6847E-06
  2.6847E-06
  2.6847E-06
  2.6847E-06
  2.6847E-06
  2.6847E-06
  2.6847E-06
  2.6847E-06
  2.6847E-06
  1.0024E-05
  1.0024E-05
  1.0024E-05
  1.0024E-05
  1.0024E-05
  1.0024E-05
  1.0024E-05
  1.0024E-05
  1.0024E-05
  3.7427E-05
  3.7427E-05
  3.7427E-05
  3.7427E-05
  3.7427E-05
  3.7427E-05
  3.7427E-05
  3.7427E-05
  3.7427E-05
  1.3974E-04
  1.3974E-04
  1.3974E-04
  1.3974E-04
  1.3974E-04
  1.3974E-04
  1.3974E-04
  1.3974E-04
  1.3974E-04
  5.2177E-04
  5.2177E-04
  5.2177E-04
  5.2177E-04
  5.2177E-04
  5.2177E-04
  5.2177E-04
  5.2177E-04
  5.2177E-04
  1.9481E-03
  1.9481E-03
  1.9481E-03
  1.9481E-03
  1.9481E-03
  1.9481E-03
  1.9481E-03
  1.9481E-03
  1.9481E-03
  7.2739E-03
  7.2739E-03
  7.2739E-03
  7.2739E-03
  7.2739E-03
  7.2739E-03
  7.2739E-03
  7.2739E-03
  7.2739E-03
  2.7159E-02
  2.7159E-02
  2.7159E-02
  2.7159E-02
  2.7159E-02
  2.7159E-02
  2.7159E-02
  2.7159E-02
  2.7159E-02
  1.0141E-01
  1.0141E-01
  1.0141E-01
  1.0141E-01
  1.0141E-01
  1.0141E-01
  1.0141E-01
  1.0141E-01
  1.0141E-01
  3.7862E-01
  3.7862E-01
  3.7862E-01
  3.7862E-01
  3.7862E-01
  3.7862E-01
  3.7862E-01
  3.7862E-01
  3.7862E-01
  5.9728E-01
  5.9728E-01
  5.9728E-01
  5.9728E-01
  5.9728E-01
  5.9728E-01
  5.9728E-01
  5.9728E-01
  5.9728E-01
   1.8500E-02
  5.9484E-12
  5.9484E-12
  5.9484E-12
  5.9484E-12
  5.9484E-12
  5.9484E-12
  5.9484E-12
  5.9484E-12
  5.9484E-12
  1.7859E-11
  1.7859E-11
  1.7859E-11
  1.7859E-11
  1.7859E-11
  1.7859E-11
  1.7859E-11
  1.7859E-11
  1.7859E-11
  7.1473E-11
  7.1473E-11
  7.1473E-11
  7.1473E-11
  7.1473E-11
  7.1473E-11
  7.1473E-11
  7.1473E-11
  7.1473E-11
  2.6815E-10
  2.6815E-10
  2.6815E-10
  2.6815E-10
  2.6815E-10
  2.6815E-10
  2.6815E-10
  2.6815E-10
  2.6815E-10
  1.0016E-09
  1.0016E-09
  1.0016E-09
  1.0016E-09
  1.0016E-09
  1.0016E-09
  1.0016E-09
  1.0016E-09
  1.0016E-09
  3.7397E-09
  3.7397E-09
  3.7397E-09
  3.7397E-09
  3.7397E-09
  3.7397E-09
  3.7397E-09
  3.7397E-09
  3.7397E-09
  1.3963E-08
  1.3963E-08
  1.3963E-08
  1.3963E-08
  1.3963E-08
  1.3963E-08
  1.3963E-08
  1.3963E-08
  1.3963E-08
  5.2135E-08
  5.2135E-08
  5.2135E-08
  5.2135E-08
  5.2135E-08
  5.2135E-08
  5.2135E-08
  5.2135E-08
  5.2135E-08
  1.9466E-07
  1.9466E-07
  1.9466E-07
  1.9466E-07
  1.9466E-07
  1.9466E-07
  1.9466E-07
  1.9466E-07
  1.9466E-07
  7.2682E-07
  7.2682E-07
  7.2682E-07
  7.2682E-07
  7.2682E-07
  7.2682E-07
  7.2682E-07
  7.2682E-07
  7.2682E-07
  2.7138E-06
  2.7138E-06
  2.7138E-06
  2.7138E-06
  2.7138E-06
  2.7138E-06
  2.7138E-06
  2.7138E-06
  2.7138E-06
  1.0133E-05
  1.0133E-05
  1.0133E-05
  1.0133E-05
  1.0133E-05
  1.0133E-05
  1.0133E-05
  1.0133E-05
  1.0133E-05
  3.7833E-05
  3.7833E-05
  3.7833E-05
  3.7833E-05
  3.7833E-05
  3.7833E-05
  3.7833E-05
  3.7833E-05
  3.7833E-05
  1.4126E-04
  1.4126E-04
  1.4126E-04
  1.4126E-04
  1.4126E-04
  1.4126E-04
  1.4126E-04
  1.4126E-04
  1.4126E-04
  5.2744E-04
  5.2744E-04
  5.2744E-04
  5.2744E-04
  5.2744E-04
  5.2744E-04
  5.2744E-04
  5.2744E-04
  5.2744E-04
  1.9693E-03
  1.9693E-03
  1.9693E-03
  1.9693E-03
  1.9693E-03
  1.9693E-03
  1.9693E-03
  1.9693E-03
  1.9693E-03
  7.3531E-03
  7.3531E-03
  7.3531E-03
  7.3531E-03
  7.3531E-03
  7.3531E-03
  7.3531E-03
  7.3531E-03
  7.3531E-03
  2.7455E-02
  2.7455E-02
  2.7455E-02
  2.7455E-02
  2.7455E-02
  2.7455E-02
  2.7455E-02
  2.7455E-02
  2.7455E-02
  1.0251E-01
  1.0251E-01
  1.0251E-01
  1.0251E-01
  1.0251E-01
  1.0251E-01
  1.0251E-01
  1.0251E-01
  1.0251E-01
  3.8275E-01
  3.8275E-01
  3.8275E-01
  3.8275E-01
  3.8275E-01
  3.8275E-01
  3.8275E-01
  3.8275E-01
  3.8275E-01
  6.0378E-01
  6.0378E-01
  6.0378E-01
  6.0378E-01
  6.0378E-01
  6.0378E-01
  6.0378E-01
  6.0378E-01
  6.0378E-01
   1.8600E-02
  6.0122E-12
  6.0122E-12
  6.0122E-12
  6.0122E-12
  6.0122E-12
  6.0122E-12
  6.0122E-12
  6.0122E-12
  6.0122E-12
  1.8051E-11
  1.8051E-11
  1.8051E-11
  1.8051E-11
  1.8051E-11
  1.8051E-11
  1.8051E-11
  1.8051E-11
  1.8051E-11
  7.2242E-11
  7.2242E-11
  7.2242E-11
  7.2242E-11
  7.2242E-11
  7.2242E-11
  7.2242E-11
  7.2242E-11
  7.2242E-11
  2.7103E-10
  2.7103E-10
  2.7103E-10
  2.7103E-10
  2.7103E-10
  2.7103E-10
  2.7103E-10
  2.7103E-10
  2.7103E-10
  1.0123E-09
  1.0123E-09
  1.0123E-09
  1.0123E-09
  1.0123E-09
  1.0123E-09
  1.0123E-09
  1.0123E-09
  1.0123E-09
  3.7799E-09
  3.7799E-09
  3.7799E-09
  3.7799E-09
  3.7799E-09
  3.7799E-09
  3.7799E-09
  3.7799E-09
  3.7799E-09
  1.4114E-08
  1.4114E-08
  1.4114E-08
  1.4114E-08
  1.4114E-08
  1.4114E-08
  1.4114E-08
  1.4114E-08
  1.4114E-08
  5.2697E-08
  5.2697E-08
  5.2697E-08
  5.2697E-08
  5.2697E-08
  5.2697E-08
  5.2697E-08
  5.2697E-08
  5.2697E-08
  1.9676E-07
  1.9676E-07
  1.9676E-07
  1.9676E-07
  1.9676E-07
  1.9676E-07
  1.9676E-07
  1.9676E-07
  1.9676E-07
  7.3466E-07
  7.3466E-07
  7.3466E-07
  7.3466E-07
  7.3466E-07
  7.3466E-07
  7.3466E-07
  7.3466E-07
  7.3466E-07
  2.7431E-06
  2.7431E-06
  2.7431E-06
  2.7431E-06
  2.7431E-06
  2.7431E-06
  2.7431E-06
  2.7431E-06
  2.7431E-06
  1.0242E-05
  1.0242E-05
  1.0242E-05
  1.0242E-05
  1.0242E-05
  1.0242E-05
  1.0242E-05
  1.0242E-05
  1.0242E-05
  3.8242E-05
  3.8242E-05
  3.8242E-05
  3.8242E-05
  3.8242E-05
  3.8242E-05
  3.8242E-05
  3.8242E-05
  3.8242E-05
  1.4279E-04
  1.4279E-04
  1.4279E-04
  1.4279E-04
  1.4279E-04
  1.4279E-04
  1.4279E-04
  1.4279E-04
  1.4279E-04
  5.3314E-04
  5.3314E-04
  5.3314E-04
  5.3314E-04
  5.3314E-04
  5.3314E-04
  5.3314E-04
  5.3314E-04
  5.3314E-04
  1.9906E-03
  1.9906E-03
  1.9906E-03
  1.9906E-03
  1.9906E-03
  1.9906E-03
  1.9906E-03
  1.9906E-03
  1.9906E-03
  7.4326E-03
  7.4326E-03
  7.4326E-03
  7.4326E-03
  7.4326E-03
  7.4326E-03
  7.4326E-03
  7.4326E-03
  7.4326E-03
  2.7752E-02
  2.7752E-02
  2.7752E-02
  2.7752E-02
  2.7752E-02
  2.7752E-02
  2.7752E-02
  2.7752E-02
  2.7752E-02
  1.0362E-01
  1.0362E-01
  1.0362E-01
  1.0362E-01
  1.0362E-01
  1.0362E-01
  1.0362E-01
  1.0362E-01
  1.0362E-01
  3.8689E-01
  3.8689E-01
  3.8689E-01
  3.8689E-01
  3.8689E-01
  3.8689E-01
  3.8689E-01
  3.8689E-01
  3.8689E-01
  6.1033E-01
  6.1033E-01
  6.1033E-01
  6.1033E-01
  6.1033E-01
  6.1033E-01
  6.1033E-01
  6.1033E-01
  6.1033E-01
   1.8700E-02
  6.0764E-12
  6.0764E-12
  6.0764E-12
  6.0764E-12
  6.0764E-12
  6.0764E-12
  6.0764E-12
  6.0764E-12
  6.0764E-12
  1.8244E-11
  1.8244E-11
  1.8244E-11
  1.8244E-11
  1.8244E-11
  1.8244E-11
  1.8244E-11
  1.8244E-11
  1.8244E-11
  7.3014E-11
  7.3014E-11
  7.3014E-11
  7.3014E-11
  7.3014E-11
  7.3014E-11
  7.3014E-11
  7.3014E-11
  7.3014E-11
  2.7393E-10
  2.7393E-10
  2.7393E-10
  2.7393E-10
  2.7393E-10
  2.7393E-10
  2.7393E-10
  2.7393E-10
  2.7393E-10
  1.0232E-09
  1.0232E-09
  1.0232E-09
  1.0232E-09
  1.0232E-09
  1.0232E-09
  1.0232E-09
  1.0232E-09
  1.0232E-09
  3.8204E-09
  3.8204E-09
  3.8204E-09
  3.8204E-09
  3.8204E-09
  3.8204E-09
  3.8204E-09
  3.8204E-09
  3.8204E-09
  1.4265E-08
  1.4265E-08
  1.4265E-08
  1.4265E-08
  1.4265E-08
  1.4265E-08
  1.4265E-08
  1.4265E-08
  1.4265E-08
  5.3262E-08
  5.3262E-08
  5.3262E-08
  5.3262E-08
  5.3262E-08
  5.3262E-08
  5.3262E-08
  5.3262E-08
  5.3262E-08
  1.9887E-07
  1.9887E-07
  1.9887E-07
  1.9887E-07
  1.9887E-07
  1.9887E-07
  1.9887E-07
  1.9887E-07
  1.9887E-07
  7.4254E-07
  7.4254E-07
  7.4254E-07
  7.4254E-07
  7.4254E-07
  7.4254E-07
  7.4254E-07
  7.4254E-07
  7.4254E-07
  2.7725E-06
  2.7725E-06
  2.7725E-06
  2.7725E-06
  2.7725E-06
  2.7725E-06
  2.7725E-06
  2.7725E-06
  2.7725E-06
  1.0352E-05
  1.0352E-05
  1.0352E-05
  1.0352E-05
  1.0352E-05
  1.0352E-05
  1.0352E-05
  1.0352E-05
  1.0352E-05
  3.8653E-05
  3.8653E-05
  3.8653E-05
  3.8653E-05
  3.8653E-05
  3.8653E-05
  3.8653E-05
  3.8653E-05
  3.8653E-05
  1.4432E-04
  1.4432E-04
  1.4432E-04
  1.4432E-04
  1.4432E-04
  1.4432E-04
  1.4432E-04
  1.4432E-04
  1.4432E-04
  5.3887E-04
  5.3887E-04
  5.3887E-04
  5.3887E-04
  5.3887E-04
  5.3887E-04
  5.3887E-04
  5.3887E-04
  5.3887E-04
  2.0120E-03
  2.0120E-03
  2.0120E-03
  2.0120E-03
  2.0120E-03
  2.0120E-03
  2.0120E-03
  2.0120E-03
  2.0120E-03
  7.5126E-03
  7.5126E-03
  7.5126E-03
  7.5126E-03
  7.5126E-03
  7.5126E-03
  7.5126E-03
  7.5126E-03
  7.5126E-03
  2.8051E-02
  2.8051E-02
  2.8051E-02
  2.8051E-02
  2.8051E-02
  2.8051E-02
  2.8051E-02
  2.8051E-02
  2.8051E-02
  1.0474E-01
  1.0474E-01
  1.0474E-01
  1.0474E-01
  1.0474E-01
  1.0474E-01
  1.0474E-01
  1.0474E-01
  1.0474E-01
  3.9106E-01
  3.9106E-01
  3.9106E-01
  3.9106E-01
  3.9106E-01
  3.9106E-01
  3.9106E-01
  3.9106E-01
  3.9106E-01
  6.1691E-01
  6.1691E-01
  6.1691E-01
  6.1691E-01
  6.1691E-01
  6.1691E-01
  6.1691E-01
  6.1691E-01
  6.1691E-01
   1.8800E-02
  6.1409E-12
  6.1409E-12
  6.1409E-12
  6.1409E-12
  6.1409E-12
  6.1409E-12
  6.1409E-12
  6.1409E-12
  6.1409E-12
  1.8437E-11
  1.8437E-11
  1.8437E-11
  1.8437E-11
  1.8437E-11
  1.8437E-11
  1.8437E-11
  1.8437E-11
  1.8437E-11
  7.3790E-11
  7.3790E-11
  7.3790E-11
  7.3790E-11
  7.3790E-11
  7.3790E-11
  7.3790E-11
  7.3790E-11
  7.3790E-11
  2.7685E-10
  2.7685E-10
  2.7685E-10
  2.7685E-10
  2.7685E-10
  2.7685E-10
  2.7685E-10
  2.7685E-10
  2.7685E-10
  1.0341E-09
  1.0341E-09
  1.0341E-09
  1.0341E-09
  1.0341E-09
  1.0341E-09
  1.0341E-09
  1.0341E-09
  1.0341E-09
  3.8611E-09
  3.8611E-09
  3.8611E-09
  3.8611E-09
  3.8611E-09
  3.8611E-09
  3.8611E-09
  3.8611E-09
  3.8611E-09
  1.4417E-08
  1.4417E-08
  1.4417E-08
  1.4417E-08
  1.4417E-08
  1.4417E-08
  1.4417E-08
  1.4417E-08
  1.4417E-08
  5.3829E-08
  5.3829E-08
  5.3829E-08
  5.3829E-08
  5.3829E-08
  5.3829E-08
  5.3829E-08
  5.3829E-08
  5.3829E-08
  2.0099E-07
  2.0099E-07
  2.0099E-07
  2.0099E-07
  2.0099E-07
  2.0099E-07
  2.0099E-07
  2.0099E-07
  2.0099E-07
  7.5046E-07
  7.5046E-07
  7.5046E-07
  7.5046E-07
  7.5046E-07
  7.5046E-07
  7.5046E-07
  7.5046E-07
  7.5046E-07
  2.8021E-06
  2.8021E-06
  2.8021E-06
  2.8021E-06
  2.8021E-06
  2.8021E-06
  2.8021E-06
  2.8021E-06
  2.8021E-06
  1.0463E-05
  1.0463E-05
  1.0463E-05
  1.0463E-05
  1.0463E-05
  1.0463E-05
  1.0463E-05
  1.0463E-05
  1.0463E-05
  3.9066E-05
  3.9066E-05
  3.9066E-05
  3.9066E-05
  3.9066E-05
  3.9066E-05
  3.9066E-05
  3.9066E-05
  3.9066E-05
  1.4586E-04
  1.4586E-04
  1.4586E-04
  1.4586E-04
  1.4586E-04
  1.4586E-04
  1.4586E-04
  1.4586E-04
  1.4586E-04
  5.4463E-04
  5.4463E-04
  5.4463E-04
  5.4463E-04
  5.4463E-04
  5.4463E-04
  5.4463E-04
  5.4463E-04
  5.4463E-04
  2.0336E-03
  2.0336E-03
  2.0336E-03
  2.0336E-03
  2.0336E-03
  2.0336E-03
  2.0336E-03
  2.0336E-03
  2.0336E-03
  7.5930E-03
  7.5930E-03
  7.5930E-03
  7.5930E-03
  7.5930E-03
  7.5930E-03
  7.5930E-03
  7.5930E-03
  7.5930E-03
  2.8351E-02
  2.8351E-02
  2.8351E-02
  2.8351E-02
  2.8351E-02
  2.8351E-02
  2.8351E-02
  2.8351E-02
  2.8351E-02
  1.0586E-01
  1.0586E-01
  1.0586E-01
  1.0586E-01
  1.0586E-01
  1.0586E-01
  1.0586E-01
  1.0586E-01
  1.0586E-01
  3.9526E-01
  3.9526E-01
  3.9526E-01
  3.9526E-01
  3.9526E-01
  3.9526E-01
  3.9526E-01
  3.9526E-01
  3.9526E-01
  6.2352E-01
  6.2352E-01
  6.2352E-01
  6.2352E-01
  6.2352E-01
  6.2352E-01
  6.2352E-01
  6.2352E-01
  6.2352E-01
   1.8900E-02
  6.2058E-12
  6.2058E-12
  6.2058E-12
  6.2058E-12
  6.2058E-12
  6.2058E-12
  6.2058E-12
  6.2058E-12
  6.2058E-12
  1.8632E-11
  1.8632E-11
  1.8632E-11
  1.8632E-11
  1.8632E-11
  1.8632E-11
  1.8632E-11
  1.8632E-11
  1.8632E-11
  7.4570E-11
  7.4570E-11
  7.4570E-11
  7.4570E-11
  7.4570E-11
  7.4570E-11
  7.4570E-11
  7.4570E-11
  7.4570E-11
  2.7977E-10
  2.7977E-10
  2.7977E-10
  2.7977E-10
  2.7977E-10
  2.7977E-10
  2.7977E-10
  2.7977E-10
  2.7977E-10
  1.0450E-09
  1.0450E-09
  1.0450E-09
  1.0450E-09
  1.0450E-09
  1.0450E-09
  1.0450E-09
  1.0450E-09
  1.0450E-09
  3.9020E-09
  3.9020E-09
  3.9020E-09
  3.9020E-09
  3.9020E-09
  3.9020E-09
  3.9020E-09
  3.9020E-09
  3.9020E-09
  1.4569E-08
  1.4569E-08
  1.4569E-08
  1.4569E-08
  1.4569E-08
  1.4569E-08
  1.4569E-08
  1.4569E-08
  1.4569E-08
  5.4400E-08
  5.4400E-08
  5.4400E-08
  5.4400E-08
  5.4400E-08
  5.4400E-08
  5.4400E-08
  5.4400E-08
  5.4400E-08
  2.0312E-07
  2.0312E-07
  2.0312E-07
  2.0312E-07
  2.0312E-07
  2.0312E-07
  2.0312E-07
  2.0312E-07
  2.0312E-07
  7.5843E-07
  7.5843E-07
  7.5843E-07
  7.5843E-07
  7.5843E-07
  7.5843E-07
  7.5843E-07
  7.5843E-07
  7.5843E-07
  2.8319E-06
  2.8319E-06
  2.8319E-06
  2.8319E-06
  2.8319E-06
  2.8319E-06
  2.8319E-06
  2.8319E-06
  2.8319E-06
  1.0574E-05
  1.0574E-05
  1.0574E-05
  1.0574E-05
  1.0574E-05
  1.0574E-05
  1.0574E-05
  1.0574E-05
  1.0574E-05
  3.9481E-05
  3.9481E-05
  3.9481E-05
  3.9481E-05
  3.9481E-05
  3.9481E-05
  3.9481E-05
  3.9481E-05
  3.9481E-05
  1.4742E-04
  1.4742E-04
  1.4742E-04
  1.4742E-04
  1.4742E-04
  1.4742E-04
  1.4742E-04
  1.4742E-04
  1.4742E-04
  5.5043E-04
  5.5043E-04
  5.5043E-04
  5.5043E-04
  5.5043E-04
  5.5043E-04
  5.5043E-04
  5.5043E-04
  5.5043E-04
  2.0552E-03
  2.0552E-03
  2.0552E-03
  2.0552E-03
  2.0552E-03
  2.0552E-03
  2.0552E-03
  2.0552E-03
  2.0552E-03
  7.6739E-03
  7.6739E-03
  7.6739E-03
  7.6739E-03
  7.6739E-03
  7.6739E-03
  7.6739E-03
  7.6739E-03
  7.6739E-03
  2.8653E-02
  2.8653E-02
  2.8653E-02
  2.8653E-02
  2.8653E-02
  2.8653E-02
  2.8653E-02
  2.8653E-02
  2.8653E-02
  1.0699E-01
  1.0699E-01
  1.0699E-01
  1.0699E-01
  1.0699E-01
  1.0699E-01
  1.0699E-01
  1.0699E-01
  1.0699E-01
  3.9947E-01
  3.9947E-01
  3.9947E-01
  3.9947E-01
  3.9947E-01
  3.9947E-01
  3.9947E-01
  3.9947E-01
  3.9947E-01
  6.3017E-01
  6.3017E-01
  6.3017E-01
  6.3017E-01
  6.3017E-01
  6.3017E-01
  6.3017E-01
  6.3017E-01
  6.3017E-01
   1.9000E-02
  6.2710E-12
  6.2710E-12
  6.2710E-12
  6.2710E-12
  6.2710E-12
  6.2710E-12
  6.2710E-12
  6.2710E-12
  6.2710E-12
  1.8828E-11
  1.8828E-11
  1.8828E-11
  1.8828E-11
  1.8828E-11
  1.8828E-11
  1.8828E-11
  1.8828E-11
  1.8828E-11
  7.5355E-11
  7.5355E-11
  7.5355E-11
  7.5355E-11
  7.5355E-11
  7.5355E-11
  7.5355E-11
  7.5355E-11
  7.5355E-11
  2.8272E-10
  2.8272E-10
  2.8272E-10
  2.8272E-10
  2.8272E-10
  2.8272E-10
  2.8272E-10
  2.8272E-10
  2.8272E-10
  1.0560E-09
  1.0560E-09
  1.0560E-09
  1.0560E-09
  1.0560E-09
  1.0560E-09
  1.0560E-09
  1.0560E-09
  1.0560E-09
  3.9431E-09
  3.9431E-09
  3.9431E-09
  3.9431E-09
  3.9431E-09
  3.9431E-09
  3.9431E-09
  3.9431E-09
  3.9431E-09
  1.4723E-08
  1.4723E-08
  1.4723E-08
  1.4723E-08
  1.4723E-08
  1.4723E-08
  1.4723E-08
  1.4723E-08
  1.4723E-08
  5.4974E-08
  5.4974E-08
  5.4974E-08
  5.4974E-08
  5.4974E-08
  5.4974E-08
  5.4974E-08
  5.4974E-08
  5.4974E-08
  2.0526E-07
  2.0526E-07
  2.0526E-07
  2.0526E-07
  2.0526E-07
  2.0526E-07
  2.0526E-07
  2.0526E-07
  2.0526E-07
  7.6643E-07
  7.6643E-07
  7.6643E-07
  7.6643E-07
  7.6643E-07
  7.6643E-07
  7.6643E-07
  7.6643E-07
  7.6643E-07
  2.8618E-06
  2.8618E-06
  2.8618E-06
  2.8618E-06
  2.8618E-06
  2.8618E-06
  2.8618E-06
  2.8618E-06
  2.8618E-06
  1.0685E-05
  1.0685E-05
  1.0685E-05
  1.0685E-05
  1.0685E-05
  1.0685E-05
  1.0685E-05
  1.0685E-05
  1.0685E-05
  3.9898E-05
  3.9898E-05
  3.9898E-05
  3.9898E-05
  3.9898E-05
  3.9898E-05
  3.9898E-05
  3.9898E-05
  3.9898E-05
  1.4897E-04
  1.4897E-04
  1.4897E-04
  1.4897E-04
  1.4897E-04
  1.4897E-04
  1.4897E-04
  1.4897E-04
  1.4897E-04
  5.5625E-04
  5.5625E-04
  5.5625E-04
  5.5625E-04
  5.5625E-04
  5.5625E-04
  5.5625E-04
  5.5625E-04
  5.5625E-04
  2.0770E-03
  2.0770E-03
  2.0770E-03
  2.0770E-03
  2.0770E-03
  2.0770E-03
  2.0770E-03
  2.0770E-03
  2.0770E-03
  7.7551E-03
  7.7551E-03
  7.7551E-03
  7.7551E-03
  7.7551E-03
  7.7551E-03
  7.7551E-03
  7.7551E-03
  7.7551E-03
  2.8957E-02
  2.8957E-02
  2.8957E-02
  2.8957E-02
  2.8957E-02
  2.8957E-02
  2.8957E-02
  2.8957E-02
  2.8957E-02
  1.0812E-01
  1.0812E-01
  1.0812E-01
  1.0812E-01
  1.0812E-01
  1.0812E-01
  1.0812E-01
  1.0812E-01
  1.0812E-01
  4.0371E-01
  4.0371E-01
  4.0371E-01
  4.0371E-01
  4.0371E-01
  4.0371E-01
  4.0371E-01
  4.0371E-01
  4.0371E-01
  6.3685E-01
  6.3685E-01
  6.3685E-01
  6.3685E-01
  6.3685E-01
  6.3685E-01
  6.3685E-01
  6.3685E-01
  6.3685E-01
   1.9100E-02
  6.3365E-12
  6.3365E-12
  6.3365E-12
  6.3365E-12
  6.3365E-12
  6.3365E-12
  6.3365E-12
  6.3365E-12
  6.3365E-12
  1.9025E-11
  1.9025E-11
  1.9025E-11
  1.9025E-11
  1.9025E-11
  1.9025E-11
  1.9025E-11
  1.9025E-11
  1.9025E-11
  7.6143E-11
  7.6143E-11
  7.6143E-11
  7.6143E-11
  7.6143E-11
  7.6143E-11
  7.6143E-11
  7.6143E-11
  7.6143E-11
  2.8568E-10
  2.8568E-10
  2.8568E-10
  2.8568E-10
  2.8568E-10
  2.8568E-10
  2.8568E-10
  2.8568E-10
  2.8568E-10
  1.0671E-09
  1.0671E-09
  1.0671E-09
  1.0671E-09
  1.0671E-09
  1.0671E-09
  1.0671E-09
  1.0671E-09
  1.0671E-09
  3.9844E-09
  3.9844E-09
  3.9844E-09
  3.9844E-09
  3.9844E-09
  3.9844E-09
  3.9844E-09
  3.9844E-09
  3.9844E-09
  1.4877E-08
  1.4877E-08
  1.4877E-08
  1.4877E-08
  1.4877E-08
  1.4877E-08
  1.4877E-08
  1.4877E-08
  1.4877E-08
  5.5550E-08
  5.5550E-08
  5.5550E-08
  5.5550E-08
  5.5550E-08
  5.5550E-08
  5.5550E-08
  5.5550E-08
  5.5550E-08
  2.0742E-07
  2.0742E-07
  2.0742E-07
  2.0742E-07
  2.0742E-07
  2.0742E-07
  2.0742E-07
  2.0742E-07
  2.0742E-07
  7.7448E-07
  7.7448E-07
  7.7448E-07
  7.7448E-07
  7.7448E-07
  7.7448E-07
  7.7448E-07
  7.7448E-07
  7.7448E-07
  2.8918E-06
  2.8918E-06
  2.8918E-06
  2.8918E-06
  2.8918E-06
  2.8918E-06
  2.8918E-06
  2.8918E-06
  2.8918E-06
  1.0798E-05
  1.0798E-05
  1.0798E-05
  1.0798E-05
  1.0798E-05
  1.0798E-05
  1.0798E-05
  1.0798E-05
  1.0798E-05
  4.0318E-05
  4.0318E-05
  4.0318E-05
  4.0318E-05
  4.0318E-05
  4.0318E-05
  4.0318E-05
  4.0318E-05
  4.0318E-05
  1.5054E-04
  1.5054E-04
  1.5054E-04
  1.5054E-04
  1.5054E-04
  1.5054E-04
  1.5054E-04
  1.5054E-04
  1.5054E-04
  5.6210E-04
  5.6210E-04
  5.6210E-04
  5.6210E-04
  5.6210E-04
  5.6210E-04
  5.6210E-04
  5.6210E-04
  5.6210E-04
  2.0988E-03
  2.0988E-03
  2.0988E-03
  2.0988E-03
  2.0988E-03
  2.0988E-03
  2.0988E-03
  2.0988E-03
  2.0988E-03
  7.8368E-03
  7.8368E-03
  7.8368E-03
  7.8368E-03
  7.8368E-03
  7.8368E-03
  7.8368E-03
  7.8368E-03
  7.8368E-03
  2.9262E-02
  2.9262E-02
  2.9262E-02
  2.9262E-02
  2.9262E-02
  2.9262E-02
  2.9262E-02
  2.9262E-02
  2.9262E-02
  1.0926E-01
  1.0926E-01
  1.0926E-01
  1.0926E-01
  1.0926E-01
  1.0926E-01
  1.0926E-01
  1.0926E-01
  1.0926E-01
  4.0797E-01
  4.0797E-01
  4.0797E-01
  4.0797E-01
  4.0797E-01
  4.0797E-01
  4.0797E-01
  4.0797E-01
  4.0797E-01
  6.4357E-01
  6.4357E-01
  6.4357E-01
  6.4357E-01
  6.4357E-01
  6.4357E-01
  6.4357E-01
  6.4357E-01
  6.4357E-01
   1.9200E-02
  6.4023E-12
  6.4023E-12
  6.4023E-12
  6.4023E-12
  6.4023E-12
  6.4023E-12
  6.4023E-12
  6.4023E-12
  6.4023E-12
  1.9223E-11
  1.9223E-11
  1.9223E-11
  1.9223E-11
  1.9223E-11
  1.9223E-11
  1.9223E-11
  1.9223E-11
  1.9223E-11
  7.6935E-11
  7.6935E-11
  7.6935E-11
  7.6935E-11
  7.6935E-11
  7.6935E-11
  7.6935E-11
  7.6935E-11
  7.6935E-11
  2.8865E-10
  2.8865E-10
  2.8865E-10
  2.8865E-10
  2.8865E-10
  2.8865E-10
  2.8865E-10
  2.8865E-10
  2.8865E-10
  1.0782E-09
  1.0782E-09
  1.0782E-09
  1.0782E-09
  1.0782E-09
  1.0782E-09
  1.0782E-09
  1.0782E-09
  1.0782E-09
  4.0259E-09
  4.0259E-09
  4.0259E-09
  4.0259E-09
  4.0259E-09
  4.0259E-09
  4.0259E-09
  4.0259E-09
  4.0259E-09
  1.5032E-08
  1.5032E-08
  1.5032E-08
  1.5032E-08
  1.5032E-08
  1.5032E-08
  1.5032E-08
  1.5032E-08
  1.5032E-08
  5.6130E-08
  5.6130E-08
  5.6130E-08
  5.6130E-08
  5.6130E-08
  5.6130E-08
  5.6130E-08
  5.6130E-08
  5.6130E-08
  2.0958E-07
  2.0958E-07
  2.0958E-07
  2.0958E-07
  2.0958E-07
  2.0958E-07
  2.0958E-07
  2.0958E-07
  2.0958E-07
  7.8256E-07
  7.8256E-07
  7.8256E-07
  7.8256E-07
  7.8256E-07
  7.8256E-07
  7.8256E-07
  7.8256E-07
  7.8256E-07
  2.9220E-06
  2.9220E-06
  2.9220E-06
  2.9220E-06
  2.9220E-06
  2.9220E-06
  2.9220E-06
  2.9220E-06
  2.9220E-06
  1.0911E-05
  1.0911E-05
  1.0911E-05
  1.0911E-05
  1.0911E-05
  1.0911E-05
  1.0911E-05
  1.0911E-05
  1.0911E-05
  4.0739E-05
  4.0739E-05
  4.0739E-05
  4.0739E-05
  4.0739E-05
  4.0739E-05
  4.0739E-05
  4.0739E-05
  4.0739E-05
  1.5212E-04
  1.5212E-04
  1.5212E-04
  1.5212E-04
  1.5212E-04
  1.5212E-04
  1.5212E-04
  1.5212E-04
  1.5212E-04
  5.6799E-04
  5.6799E-04
  5.6799E-04
  5.6799E-04
  5.6799E-04
  5.6799E-04
  5.6799E-04
  5.6799E-04
  5.6799E-04
  2.1208E-03
  2.1208E-03
  2.1208E-03
  2.1208E-03
  2.1208E-03
  2.1208E-03
  2.1208E-03
  2.1208E-03
  2.1208E-03
  7.9189E-03
  7.9189E-03
  7.9189E-03
  7.9189E-03
  7.9189E-03
  7.9189E-03
  7.9189E-03
  7.9189E-03
  7.9189E-03
  2.9569E-02
  2.9569E-02
  2.9569E-02
  2.9569E-02
  2.9569E-02
  2.9569E-02
  2.9569E-02
  2.9569E-02
  2.9569E-02
  1.1041E-01
  1.1041E-01
  1.1041E-01
  1.1041E-01
  1.1041E-01
  1.1041E-01
  1.1041E-01
  1.1041E-01
  1.1041E-01
  4.1225E-01
  4.1225E-01
  4.1225E-01
  4.1225E-01
  4.1225E-01
  4.1225E-01
  4.1225E-01
  4.1225E-01
  4.1225E-01
  6.5033E-01
  6.5033E-01
  6.5033E-01
  6.5033E-01
  6.5033E-01
  6.5033E-01
  6.5033E-01
  6.5033E-01
  6.5033E-01
   1.9300E-02
  6.4685E-12
  6.4685E-12
  6.4685E-12
  6.4685E-12
  6.4685E-12
  6.4685E-12
  6.4685E-12
  6.4685E-12
  6.4685E-12
  1.9422E-11
  1.9422E-11
  1.9422E-11
  1.9422E-11
  1.9422E-11
  1.9422E-11
  1.9422E-11
  1.9422E-11
  1.9422E-11
  7.7732E-11
  7.7732E-11
  7.7732E-11
  7.7732E-11
  7.7732E-11
  7.7732E-11
  7.7732E-11
  7.7732E-11
  7.7732E-11
  2.9164E-10
  2.9164E-10
  2.9164E-10
  2.9164E-10
  2.9164E-10
  2.9164E-10
  2.9164E-10
  2.9164E-10
  2.9164E-10
  1.0893E-09
  1.0893E-09
  1.0893E-09
  1.0893E-09
  1.0893E-09
  1.0893E-09
  1.0893E-09
  1.0893E-09
  1.0893E-09
  4.0676E-09
  4.0676E-09
  4.0676E-09
  4.0676E-09
  4.0676E-09
  4.0676E-09
  4.0676E-09
  4.0676E-09
  4.0676E-09
  1.5188E-08
  1.5188E-08
  1.5188E-08
  1.5188E-08
  1.5188E-08
  1.5188E-08
  1.5188E-08
  1.5188E-08
  1.5188E-08
  5.6712E-08
  5.6712E-08
  5.6712E-08
  5.6712E-08
  5.6712E-08
  5.6712E-08
  5.6712E-08
  5.6712E-08
  5.6712E-08
  2.1176E-07
  2.1176E-07
  2.1176E-07
  2.1176E-07
  2.1176E-07
  2.1176E-07
  2.1176E-07
  2.1176E-07
  2.1176E-07
  7.9069E-07
  7.9069E-07
  7.9069E-07
  7.9069E-07
  7.9069E-07
  7.9069E-07
  7.9069E-07
  7.9069E-07
  7.9069E-07
  2.9524E-06
  2.9524E-06
  2.9524E-06
  2.9524E-06
  2.9524E-06
  2.9524E-06
  2.9524E-06
  2.9524E-06
  2.9524E-06
  1.1024E-05
  1.1024E-05
  1.1024E-05
  1.1024E-05
  1.1024E-05
  1.1024E-05
  1.1024E-05
  1.1024E-05
  1.1024E-05
  4.1163E-05
  4.1163E-05
  4.1163E-05
  4.1163E-05
  4.1163E-05
  4.1163E-05
  4.1163E-05
  4.1163E-05
  4.1163E-05
  1.5370E-04
  1.5370E-04
  1.5370E-04
  1.5370E-04
  1.5370E-04
  1.5370E-04
  1.5370E-04
  1.5370E-04
  1.5370E-04
  5.7390E-04
  5.7390E-04
  5.7390E-04
  5.7390E-04
  5.7390E-04
  5.7390E-04
  5.7390E-04
  5.7390E-04
  5.7390E-04
  2.1429E-03
  2.1429E-03
  2.1429E-03
  2.1429E-03
  2.1429E-03
  2.1429E-03
  2.1429E-03
  2.1429E-03
  2.1429E-03
  8.0015E-03
  8.0015E-03
  8.0015E-03
  8.0015E-03
  8.0015E-03
  8.0015E-03
  8.0015E-03
  8.0015E-03
  8.0015E-03
  2.9877E-02
  2.9877E-02
  2.9877E-02
  2.9877E-02
  2.9877E-02
  2.9877E-02
  2.9877E-02
  2.9877E-02
  2.9877E-02
  1.1156E-01
  1.1156E-01
  1.1156E-01
  1.1156E-01
  1.1156E-01
  1.1156E-01
  1.1156E-01
  1.1156E-01
  1.1156E-01
  4.1655E-01
  4.1655E-01
  4.1655E-01
  4.1655E-01
  4.1655E-01
  4.1655E-01
  4.1655E-01
  4.1655E-01
  4.1655E-01
  6.5712E-01
  6.5712E-01
  6.5712E-01
  6.5712E-01
  6.5712E-01
  6.5712E-01
  6.5712E-01
  6.5712E-01
  6.5712E-01
   1.9400E-02
  6.5350E-12
  6.5350E-12
  6.5350E-12
  6.5350E-12
  6.5350E-12
  6.5350E-12
  6.5350E-12
  6.5350E-12
  6.5350E-12
  1.9622E-11
  1.9622E-11
  1.9622E-11
  1.9622E-11
  1.9622E-11
  1.9622E-11
  1.9622E-11
  1.9622E-11
  1.9622E-11
  7.8532E-11
  7.8532E-11
  7.8532E-11
  7.8532E-11
  7.8532E-11
  7.8532E-11
  7.8532E-11
  7.8532E-11
  7.8532E-11
  2.9464E-10
  2.9464E-10
  2.9464E-10
  2.9464E-10
  2.9464E-10
  2.9464E-10
  2.9464E-10
  2.9464E-10
  2.9464E-10
  1.1006E-09
  1.1006E-09
  1.1006E-09
  1.1006E-09
  1.1006E-09
  1.1006E-09
  1.1006E-09
  1.1006E-09
  1.1006E-09
  4.1096E-09
  4.1096E-09
  4.1096E-09
  4.1096E-09
  4.1096E-09
  4.1096E-09
  4.1096E-09
  4.1096E-09
  4.1096E-09
  1.5345E-08
  1.5345E-08
  1.5345E-08
  1.5345E-08
  1.5345E-08
  1.5345E-08
  1.5345E-08
  1.5345E-08
  1.5345E-08
  5.7297E-08
  5.7297E-08
  5.7297E-08
  5.7297E-08
  5.7297E-08
  5.7297E-08
  5.7297E-08
  5.7297E-08
  5.7297E-08
  2.1395E-07
  2.1395E-07
  2.1395E-07
  2.1395E-07
  2.1395E-07
  2.1395E-07
  2.1395E-07
  2.1395E-07
  2.1395E-07
  7.9886E-07
  7.9886E-07
  7.9886E-07
  7.9886E-07
  7.9886E-07
  7.9886E-07
  7.9886E-07
  7.9886E-07
  7.9886E-07
  2.9829E-06
  2.9829E-06
  2.9829E-06
  2.9829E-06
  2.9829E-06
  2.9829E-06
  2.9829E-06
  2.9829E-06
  2.9829E-06
  1.1138E-05
  1.1138E-05
  1.1138E-05
  1.1138E-05
  1.1138E-05
  1.1138E-05
  1.1138E-05
  1.1138E-05
  1.1138E-05
  4.1589E-05
  4.1589E-05
  4.1589E-05
  4.1589E-05
  4.1589E-05
  4.1589E-05
  4.1589E-05
  4.1589E-05
  4.1589E-05
  1.5529E-04
  1.5529E-04
  1.5529E-04
  1.5529E-04
  1.5529E-04
  1.5529E-04
  1.5529E-04
  1.5529E-04
  1.5529E-04
  5.7985E-04
  5.7985E-04
  5.7985E-04
  5.7985E-04
  5.7985E-04
  5.7985E-04
  5.7985E-04
  5.7985E-04
  5.7985E-04
  2.1651E-03
  2.1651E-03
  2.1651E-03
  2.1651E-03
  2.1651E-03
  2.1651E-03
  2.1651E-03
  2.1651E-03
  2.1651E-03
  8.0845E-03
  8.0845E-03
  8.0845E-03
  8.0845E-03
  8.0845E-03
  8.0845E-03
  8.0845E-03
  8.0845E-03
  8.0845E-03
  3.0187E-02
  3.0187E-02
  3.0187E-02
  3.0187E-02
  3.0187E-02
  3.0187E-02
  3.0187E-02
  3.0187E-02
  3.0187E-02
  1.1272E-01
  1.1272E-01
  1.1272E-01
  1.1272E-01
  1.1272E-01
  1.1272E-01
  1.1272E-01
  1.1272E-01
  1.1272E-01
  4.2088E-01
  4.2088E-01
  4.2088E-01
  4.2088E-01
  4.2088E-01
  4.2088E-01
  4.2088E-01
  4.2088E-01
  4.2088E-01
  6.6394E-01
  6.6394E-01
  6.6394E-01
  6.6394E-01
  6.6394E-01
  6.6394E-01
  6.6394E-01
  6.6394E-01
  6.6394E-01
   1.9500E-02
  6.6018E-12
  6.6018E-12
  6.6018E-12
  6.6018E-12
  6.6018E-12
  6.6018E-12
  6.6018E-12
  6.6018E-12
  6.6018E-12
  1.9822E-11
  1.9822E-11
  1.9822E-11
  1.9822E-11
  1.9822E-11
  1.9822E-11
  1.9822E-11
  1.9822E-11
  1.9822E-11
  7.9336E-11
  7.9336E-11
  7.9336E-11
  7.9336E-11
  7.9336E-11
  7.9336E-11
  7.9336E-11
  7.9336E-11
  7.9336E-11
  2.9766E-10
  2.9766E-10
  2.9766E-10
  2.9766E-10
  2.9766E-10
  2.9766E-10
  2.9766E-10
  2.9766E-10
  2.9766E-10
  1.1118E-09
  1.1118E-09
  1.1118E-09
  1.1118E-09
  1.1118E-09
  1.1118E-09
  1.1118E-09
  1.1118E-09
  1.1118E-09
  4.1517E-09
  4.1517E-09
  4.1517E-09
  4.1517E-09
  4.1517E-09
  4.1517E-09
  4.1517E-09
  4.1517E-09
  4.1517E-09
  1.5502E-08
  1.5502E-08
  1.5502E-08
  1.5502E-08
  1.5502E-08
  1.5502E-08
  1.5502E-08
  1.5502E-08
  1.5502E-08
  5.7886E-08
  5.7886E-08
  5.7886E-08
  5.7886E-08
  5.7886E-08
  5.7886E-08
  5.7886E-08
  5.7886E-08
  5.7886E-08
  2.1614E-07
  2.1614E-07
  2.1614E-07
  2.1614E-07
  2.1614E-07
  2.1614E-07
  2.1614E-07
  2.1614E-07
  2.1614E-07
  8.0707E-07
  8.0707E-07
  8.0707E-07
  8.0707E-07
  8.0707E-07
  8.0707E-07
  8.0707E-07
  8.0707E-07
  8.0707E-07
  3.0136E-06
  3.0136E-06
  3.0136E-06
  3.0136E-06
  3.0136E-06
  3.0136E-06
  3.0136E-06
  3.0136E-06
  3.0136E-06
  1.1253E-05
  1.1253E-05
  1.1253E-05
  1.1253E-05
  1.1253E-05
  1.1253E-05
  1.1253E-05
  1.1253E-05
  1.1253E-05
  4.2017E-05
  4.2017E-05
  4.2017E-05
  4.2017E-05
  4.2017E-05
  4.2017E-05
  4.2017E-05
  4.2017E-05
  4.2017E-05
  1.5689E-04
  1.5689E-04
  1.5689E-04
  1.5689E-04
  1.5689E-04
  1.5689E-04
  1.5689E-04
  1.5689E-04
  1.5689E-04
  5.8582E-04
  5.8582E-04
  5.8582E-04
  5.8582E-04
  5.8582E-04
  5.8582E-04
  5.8582E-04
  5.8582E-04
  5.8582E-04
  2.1874E-03
  2.1874E-03
  2.1874E-03
  2.1874E-03
  2.1874E-03
  2.1874E-03
  2.1874E-03
  2.1874E-03
  2.1874E-03
  8.1679E-03
  8.1679E-03
  8.1679E-03
  8.1679E-03
  8.1679E-03
  8.1679E-03
  8.1679E-03
  8.1679E-03
  8.1679E-03
  3.0498E-02
  3.0498E-02
  3.0498E-02
  3.0498E-02
  3.0498E-02
  3.0498E-02
  3.0498E-02
  3.0498E-02
  3.0498E-02
  1.1388E-01
  1.1388E-01
  1.1388E-01
  1.1388E-01
  1.1388E-01
  1.1388E-01
  1.1388E-01
  1.1388E-01
  1.1388E-01
  4.2523E-01
  4.2523E-01
  4.2523E-01
  4.2523E-01
  4.2523E-01
  4.2523E-01
  4.2523E-01
  4.2523E-01
  4.2523E-01
  6.7080E-01
  6.7080E-01
  6.7080E-01
  6.7080E-01
  6.7080E-01
  6.7080E-01
  6.7080E-01
  6.7080E-01
  6.7080E-01
   1.9600E-02
  6.6689E-12
  6.6689E-12
  6.6689E-12
  6.6689E-12
  6.6689E-12
  6.6689E-12
  6.6689E-12
  6.6689E-12
  6.6689E-12
  2.0024E-11
  2.0024E-11
  2.0024E-11
  2.0024E-11
  2.0024E-11
  2.0024E-11
  2.0024E-11
  2.0024E-11
  2.0024E-11
  8.0144E-11
  8.0144E-11
  8.0144E-11
  8.0144E-11
  8.0144E-11
  8.0144E-11
  8.0144E-11
  8.0144E-11
  8.0144E-11
  3.0070E-10
  3.0070E-10
  3.0070E-10
  3.0070E-10
  3.0070E-10
  3.0070E-10
  3.0070E-10
  3.0070E-10
  3.0070E-10
  1.1232E-09
  1.1232E-09
  1.1232E-09
  1.1232E-09
  1.1232E-09
  1.1232E-09
  1.1232E-09
  1.1232E-09
  1.1232E-09
  4.1941E-09
  4.1941E-09
  4.1941E-09
  4.1941E-09
  4.1941E-09
  4.1941E-09
  4.1941E-09
  4.1941E-09
  4.1941E-09
  1.5661E-08
  1.5661E-08
  1.5661E-08
  1.5661E-08
  1.5661E-08
  1.5661E-08
  1.5661E-08
  1.5661E-08
  1.5661E-08
  5.8477E-08
  5.8477E-08
  5.8477E-08
  5.8477E-08
  5.8477E-08
  5.8477E-08
  5.8477E-08
  5.8477E-08
  5.8477E-08
  2.1835E-07
  2.1835E-07
  2.1835E-07
  2.1835E-07
  2.1835E-07
  2.1835E-07
  2.1835E-07
  2.1835E-07
  2.1835E-07
  8.1533E-07
  8.1533E-07
  8.1533E-07
  8.1533E-07
  8.1533E-07
  8.1533E-07
  8.1533E-07
  8.1533E-07
  8.1533E-07
  3.0444E-06
  3.0444E-06
  3.0444E-06
  3.0444E-06
  3.0444E-06
  3.0444E-06
  3.0444E-06
  3.0444E-06
  3.0444E-06
  1.1368E-05
  1.1368E-05
  1.1368E-05
  1.1368E-05
  1.1368E-05
  1.1368E-05
  1.1368E-05
  1.1368E-05
  1.1368E-05
  4.2447E-05
  4.2447E-05
  4.2447E-05
  4.2447E-05
  4.2447E-05
  4.2447E-05
  4.2447E-05
  4.2447E-05
  4.2447E-05
  1.5850E-04
  1.5850E-04
  1.5850E-04
  1.5850E-04
  1.5850E-04
  1.5850E-04
  1.5850E-04
  1.5850E-04
  1.5850E-04
  5.9183E-04
  5.9183E-04
  5.9183E-04
  5.9183E-04
  5.9183E-04
  5.9183E-04
  5.9183E-04
  5.9183E-04
  5.9183E-04
  2.2099E-03
  2.2099E-03
  2.2099E-03
  2.2099E-03
  2.2099E-03
  2.2099E-03
  2.2099E-03
  2.2099E-03
  2.2099E-03
  8.2517E-03
  8.2517E-03
  8.2517E-03
  8.2517E-03
  8.2517E-03
  8.2517E-03
  8.2517E-03
  8.2517E-03
  8.2517E-03
  3.0812E-02
  3.0812E-02
  3.0812E-02
  3.0812E-02
  3.0812E-02
  3.0812E-02
  3.0812E-02
  3.0812E-02
  3.0812E-02
  1.1505E-01
  1.1505E-01
  1.1505E-01
  1.1505E-01
  1.1505E-01
  1.1505E-01
  1.1505E-01
  1.1505E-01
  1.1505E-01
  4.2960E-01
  4.2960E-01
  4.2960E-01
  4.2960E-01
  4.2960E-01
  4.2960E-01
  4.2960E-01
  4.2960E-01
  4.2960E-01
  6.7770E-01
  6.7770E-01
  6.7770E-01
  6.7770E-01
  6.7770E-01
  6.7770E-01
  6.7770E-01
  6.7770E-01
  6.7770E-01
   1.9700E-02
  6.7364E-12
  6.7364E-12
  6.7364E-12
  6.7364E-12
  6.7364E-12
  6.7364E-12
  6.7364E-12
  6.7364E-12
  6.7364E-12
  2.0227E-11
  2.0227E-11
  2.0227E-11
  2.0227E-11
  2.0227E-11
  2.0227E-11
  2.0227E-11
  2.0227E-11
  2.0227E-11
  8.0956E-11
  8.0956E-11
  8.0956E-11
  8.0956E-11
  8.0956E-11
  8.0956E-11
  8.0956E-11
  8.0956E-11
  8.0956E-11
  3.0375E-10
  3.0375E-10
  3.0375E-10
  3.0375E-10
  3.0375E-10
  3.0375E-10
  3.0375E-10
  3.0375E-10
  3.0375E-10
  1.1346E-09
  1.1346E-09
  1.1346E-09
  1.1346E-09
  1.1346E-09
  1.1346E-09
  1.1346E-09
  1.1346E-09
  1.1346E-09
  4.2367E-09
  4.2367E-09
  4.2367E-09
  4.2367E-09
  4.2367E-09
  4.2367E-09
  4.2367E-09
  4.2367E-09
  4.2367E-09
  1.5820E-08
  1.5820E-08
  1.5820E-08
  1.5820E-08
  1.5820E-08
  1.5820E-08
  1.5820E-08
  1.5820E-08
  1.5820E-08
  5.9071E-08
  5.9071E-08
  5.9071E-08
  5.9071E-08
  5.9071E-08
  5.9071E-08
  5.9071E-08
  5.9071E-08
  5.9071E-08
  2.2057E-07
  2.2057E-07
  2.2057E-07
  2.2057E-07
  2.2057E-07
  2.2057E-07
  2.2057E-07
  2.2057E-07
  2.2057E-07
  8.2362E-07
  8.2362E-07
  8.2362E-07
  8.2362E-07
  8.2362E-07
  8.2362E-07
  8.2362E-07
  8.2362E-07
  8.2362E-07
  3.0754E-06
  3.0754E-06
  3.0754E-06
  3.0754E-06
  3.0754E-06
  3.0754E-06
  3.0754E-06
  3.0754E-06
  3.0754E-06
  1.1484E-05
  1.1484E-05
  1.1484E-05
  1.1484E-05
  1.1484E-05
  1.1484E-05
  1.1484E-05
  1.1484E-05
  1.1484E-05
  4.2880E-05
  4.2880E-05
  4.2880E-05
  4.2880E-05
  4.2880E-05
  4.2880E-05
  4.2880E-05
  4.2880E-05
  4.2880E-05
  1.6011E-04
  1.6011E-04
  1.6011E-04
  1.6011E-04
  1.6011E-04
  1.6011E-04
  1.6011E-04
  1.6011E-04
  1.6011E-04
  5.9787E-04
  5.9787E-04
  5.9787E-04
  5.9787E-04
  5.9787E-04
  5.9787E-04
  5.9787E-04
  5.9787E-04
  5.9787E-04
  2.2324E-03
  2.2324E-03
  2.2324E-03
  2.2324E-03
  2.2324E-03
  2.2324E-03
  2.2324E-03
  2.2324E-03
  2.2324E-03
  8.3359E-03
  8.3359E-03
  8.3359E-03
  8.3359E-03
  8.3359E-03
  8.3359E-03
  8.3359E-03
  8.3359E-03
  8.3359E-03
  3.1126E-02
  3.1126E-02
  3.1126E-02
  3.1126E-02
  3.1126E-02
  3.1126E-02
  3.1126E-02
  3.1126E-02
  3.1126E-02
  1.1623E-01
  1.1623E-01
  1.1623E-01
  1.1623E-01
  1.1623E-01
  1.1623E-01
  1.1623E-01
  1.1623E-01
  1.1623E-01
  4.3399E-01
  4.3399E-01
  4.3399E-01
  4.3399E-01
  4.3399E-01
  4.3399E-01
  4.3399E-01
  4.3399E-01
  4.3399E-01
  6.8463E-01
  6.8463E-01
  6.8463E-01
  6.8463E-01
  6.8463E-01
  6.8463E-01
  6.8463E-01
  6.8463E-01
  6.8463E-01
   1.9800E-02
  6.8042E-12
  6.8042E-12
  6.8042E-12
  6.8042E-12
  6.8042E-12
  6.8042E-12
  6.8042E-12
  6.8042E-12
  6.8042E-12
  2.0431E-11
  2.0431E-11
  2.0431E-11
  2.0431E-11
  2.0431E-11
  2.0431E-11
  2.0431E-11
  2.0431E-11
  2.0431E-11
  8.1773E-11
  8.1773E-11
  8.1773E-11
  8.1773E-11
  8.1773E-11
  8.1773E-11
  8.1773E-11
  8.1773E-11
  8.1773E-11
  3.0681E-10
  3.0681E-10
  3.0681E-10
  3.0681E-10
  3.0681E-10
  3.0681E-10
  3.0681E-10
  3.0681E-10
  3.0681E-10
  1.1460E-09
  1.1460E-09
  1.1460E-09
  1.1460E-09
  1.1460E-09
  1.1460E-09
  1.1460E-09
  1.1460E-09
  1.1460E-09
  4.2794E-09
  4.2794E-09
  4.2794E-09
  4.2794E-09
  4.2794E-09
  4.2794E-09
  4.2794E-09
  4.2794E-09
  4.2794E-09
  1.5980E-08
  1.5980E-08
  1.5980E-08
  1.5980E-08
  1.5980E-08
  1.5980E-08
  1.5980E-08
  1.5980E-08
  1.5980E-08
  5.9668E-08
  5.9668E-08
  5.9668E-08
  5.9668E-08
  5.9668E-08
  5.9668E-08
  5.9668E-08
  5.9668E-08
  5.9668E-08
  2.2280E-07
  2.2280E-07
  2.2280E-07
  2.2280E-07
  2.2280E-07
  2.2280E-07
  2.2280E-07
  2.2280E-07
  2.2280E-07
  8.3195E-07
  8.3195E-07
  8.3195E-07
  8.3195E-07
  8.3195E-07
  8.3195E-07
  8.3195E-07
  8.3195E-07
  8.3195E-07
  3.1065E-06
  3.1065E-06
  3.1065E-06
  3.1065E-06
  3.1065E-06
  3.1065E-06
  3.1065E-06
  3.1065E-06
  3.1065E-06
  1.1600E-05
  1.1600E-05
  1.1600E-05
  1.1600E-05
  1.1600E-05
  1.1600E-05
  1.1600E-05
  1.1600E-05
  1.1600E-05
  4.3314E-05
  4.3314E-05
  4.3314E-05
  4.3314E-05
  4.3314E-05
  4.3314E-05
  4.3314E-05
  4.3314E-05
  4.3314E-05
  1.6174E-04
  1.6174E-04
  1.6174E-04
  1.6174E-04
  1.6174E-04
  1.6174E-04
  1.6174E-04
  1.6174E-04
  1.6174E-04
  6.0393E-04
  6.0393E-04
  6.0393E-04
  6.0393E-04
  6.0393E-04
  6.0393E-04
  6.0393E-04
  6.0393E-04
  6.0393E-04
  2.2551E-03
  2.2551E-03
  2.2551E-03
  2.2551E-03
  2.2551E-03
  2.2551E-03
  2.2551E-03
  2.2551E-03
  2.2551E-03
  8.4206E-03
  8.4206E-03
  8.4206E-03
  8.4206E-03
  8.4206E-03
  8.4206E-03
  8.4206E-03
  8.4206E-03
  8.4206E-03
  3.1443E-02
  3.1443E-02
  3.1443E-02
  3.1443E-02
  3.1443E-02
  3.1443E-02
  3.1443E-02
  3.1443E-02
  3.1443E-02
  1.1741E-01
  1.1741E-01
  1.1741E-01
  1.1741E-01
  1.1741E-01
  1.1741E-01
  1.1741E-01
  1.1741E-01
  1.1741E-01
  4.3840E-01
  4.3840E-01
  4.3840E-01
  4.3840E-01
  4.3840E-01
  4.3840E-01
  4.3840E-01
  4.3840E-01
  4.3840E-01
  6.9159E-01
  6.9159E-01
  6.9159E-01
  6.9159E-01
  6.9159E-01
  6.9159E-01
  6.9159E-01
  6.9159E-01
  6.9159E-01
   1.9900E-02
  6.8724E-12
  6.8724E-12
  6.8724E-12
  6.8724E-12
  6.8724E-12
  6.8724E-12
  6.8724E-12
  6.8724E-12
  6.8724E-12
  2.0636E-11
  2.0636E-11
  2.0636E-11
  2.0636E-11
  2.0636E-11
  2.0636E-11
  2.0636E-11
  2.0636E-11
  2.0636E-11
  8.2593E-11
  8.2593E-11
  8.2593E-11
  8.2593E-11
  8.2593E-11
  8.2593E-11
  8.2593E-11
  8.2593E-11
  8.2593E-11
  3.0989E-10
  3.0989E-10
  3.0989E-10
  3.0989E-10
  3.0989E-10
  3.0989E-10
  3.0989E-10
  3.0989E-10
  3.0989E-10
  1.1575E-09
  1.1575E-09
  1.1575E-09
  1.1575E-09
  1.1575E-09
  1.1575E-09
  1.1575E-09
  1.1575E-09
  1.1575E-09
  4.3224E-09
  4.3224E-09
  4.3224E-09
  4.3224E-09
  4.3224E-09
  4.3224E-09
  4.3224E-09
  4.3224E-09
  4.3224E-09
  1.6140E-08
  1.6140E-08
  1.6140E-08
  1.6140E-08
  1.6140E-08
  1.6140E-08
  1.6140E-08
  1.6140E-08
  1.6140E-08
  6.0268E-08
  6.0268E-08
  6.0268E-08
  6.0268E-08
  6.0268E-08
  6.0268E-08
  6.0268E-08
  6.0268E-08
  6.0268E-08
  2.2505E-07
  2.2505E-07
  2.2505E-07
  2.2505E-07
  2.2505E-07
  2.2505E-07
  2.2505E-07
  2.2505E-07
  2.2505E-07
  8.4033E-07
  8.4033E-07
  8.4033E-07
  8.4033E-07
  8.4033E-07
  8.4033E-07
  8.4033E-07
  8.4033E-07
  8.4033E-07
  3.1378E-06
  3.1378E-06
  3.1378E-06
  3.1378E-06
  3.1378E-06
  3.1378E-06
  3.1378E-06
  3.1378E-06
  3.1378E-06
  1.1717E-05
  1.1717E-05
  1.1717E-05
  1.1717E-05
  1.1717E-05
  1.1717E-05
  1.1717E-05
  1.1717E-05
  1.1717E-05
  4.3751E-05
  4.3751E-05
  4.3751E-05
  4.3751E-05
  4.3751E-05
  4.3751E-05
  4.3751E-05
  4.3751E-05
  4.3751E-05
  1.6337E-04
  1.6337E-04
  1.6337E-04
  1.6337E-04
  1.6337E-04
  1.6337E-04
  1.6337E-04
  1.6337E-04
  1.6337E-04
  6.1003E-04
  6.1003E-04
  6.1003E-04
  6.1003E-04
  6.1003E-04
  6.1003E-04
  6.1003E-04
  6.1003E-04
  6.1003E-04
  2.2779E-03
  2.2779E-03
  2.2779E-03
  2.2779E-03
  2.2779E-03
  2.2779E-03
  2.2779E-03
  2.2779E-03
  2.2779E-03
  8.5057E-03
  8.5057E-03
  8.5057E-03
  8.5057E-03
  8.5057E-03
  8.5057E-03
  8.5057E-03
  8.5057E-03
  8.5057E-03
  3.1761E-02
  3.1761E-02
  3.1761E-02
  3.1761E-02
  3.1761E-02
  3.1761E-02
  3.1761E-02
  3.1761E-02
  3.1761E-02
  1.1860E-01
  1.1860E-01
  1.1860E-01
  1.1860E-01
  1.1860E-01
  1.1860E-01
  1.1860E-01
  1.1860E-01
  1.1860E-01
  4.4284E-01
  4.4284E-01
  4.4284E-01
  4.4284E-01
  4.4284E-01
  4.4284E-01
  4.4284E-01
  4.4284E-01
  4.4284E-01
  6.9859E-01
  6.9859E-01
  6.9859E-01
  6.9859E-01
  6.9859E-01
  6.9859E-01
  6.9859E-01
  6.9859E-01
  6.9859E-01
   2.0000E-02
  6.9408E-12
  6.9408E-12
  6.9408E-12
  6.9408E-12
  6.9408E-12
  6.9408E-12
  6.9408E-12
  6.9408E-12
  6.9408E-12
  2.0841E-11
  2.0841E-11
  2.0841E-11
  2.0841E-11
  2.0841E-11
  2.0841E-11
  2.0841E-11
  2.0841E-11
  2.0841E-11
  8.3417E-11
  8.3417E-11
  8.3417E-11
  8.3417E-11
  8.3417E-11
  8.3417E-11
  8.3417E-11
  8.3417E-11
  8.3417E-11
  3.1298E-10
  3.1298E-10
  3.1298E-10
  3.1298E-10
  3.1298E-10
  3.1298E-10
  3.1298E-10
  3.1298E-10
  3.1298E-10
  1.1691E-09
  1.1691E-09
  1.1691E-09
  1.1691E-09
  1.1691E-09
  1.1691E-09
  1.1691E-09
  1.1691E-09
  1.1691E-09
  4.3656E-09
  4.3656E-09
  4.3656E-09
  4.3656E-09
  4.3656E-09
  4.3656E-09
  4.3656E-09
  4.3656E-09
  4.3656E-09
  1.6302E-08
  1.6302E-08
  1.6302E-08
  1.6302E-08
  1.6302E-08
  1.6302E-08
  1.6302E-08
  1.6302E-08
  1.6302E-08
  6.0871E-08
  6.0871E-08
  6.0871E-08
  6.0871E-08
  6.0871E-08
  6.0871E-08
  6.0871E-08
  6.0871E-08
  6.0871E-08
  2.2730E-07
  2.2730E-07
  2.2730E-07
  2.2730E-07
  2.2730E-07
  2.2730E-07
  2.2730E-07
  2.2730E-07
  2.2730E-07
  8.4875E-07
  8.4875E-07
  8.4875E-07
  8.4875E-07
  8.4875E-07
  8.4875E-07
  8.4875E-07
  8.4875E-07
  8.4875E-07
  3.1693E-06
  3.1693E-06
  3.1693E-06
  3.1693E-06
  3.1693E-06
  3.1693E-06
  3.1693E-06
  3.1693E-06
  3.1693E-06
  1.1834E-05
  1.1834E-05
  1.1834E-05
  1.1834E-05
  1.1834E-05
  1.1834E-05
  1.1834E-05
  1.1834E-05
  1.1834E-05
  4.4190E-05
  4.4190E-05
  4.4190E-05
  4.4190E-05
  4.4190E-05
  4.4190E-05
  4.4190E-05
  4.4190E-05
  4.4190E-05
  1.6501E-04
  1.6501E-04
  1.6501E-04
  1.6501E-04
  1.6501E-04
  1.6501E-04
  1.6501E-04
  1.6501E-04
  1.6501E-04
  6.1616E-04
  6.1616E-04
  6.1616E-04
  6.1616E-04
  6.1616E-04
  6.1616E-04
  6.1616E-04
  6.1616E-04
  6.1616E-04
  2.3008E-03
  2.3008E-03
  2.3008E-03
  2.3008E-03
  2.3008E-03
  2.3008E-03
  2.3008E-03
  2.3008E-03
  2.3008E-03
  8.5912E-03
  8.5912E-03
  8.5912E-03
  8.5912E-03
  8.5912E-03
  8.5912E-03
  8.5912E-03
  8.5912E-03
  8.5912E-03
  3.2080E-02
  3.2080E-02
  3.2080E-02
  3.2080E-02
  3.2080E-02
  3.2080E-02
  3.2080E-02
  3.2080E-02
  3.2080E-02
  1.1979E-01
  1.1979E-01
  1.1979E-01
  1.1979E-01
  1.1979E-01
  1.1979E-01
  1.1979E-01
  1.1979E-01
  1.1979E-01
  4.4730E-01
  4.4730E-01
  4.4730E-01
  4.4730E-01
  4.4730E-01
  4.4730E-01
  4.4730E-01
  4.4730E-01
  4.4730E-01
  7.0563E-01
  7.0563E-01
  7.0563E-01
  7.0563E-01
  7.0563E-01
  7.0563E-01
  7.0563E-01
  7.0563E-01
  7.0563E-01
   2.0100E-02
  7.0096E-12
  7.0096E-12
  7.0096E-12
  7.0096E-12
  7.0096E-12
  7.0096E-12
  7.0096E-12
  7.0096E-12
  7.0096E-12
  2.1048E-11
  2.1048E-11
  2.1048E-11
  2.1048E-11
  2.1048E-11
  2.1048E-11
  2.1048E-11
  2.1048E-11
  2.1048E-11
  8.4245E-11
  8.4245E-11
  8.4245E-11
  8.4245E-11
  8.4245E-11
  8.4245E-11
  8.4245E-11
  8.4245E-11
  8.4245E-11
  3.1609E-10
  3.1609E-10
  3.1609E-10
  3.1609E-10
  3.1609E-10
  3.1609E-10
  3.1609E-10
  3.1609E-10
  3.1609E-10
  1.1807E-09
  1.1807E-09
  1.1807E-09
  1.1807E-09
  1.1807E-09
  1.1807E-09
  1.1807E-09
  1.1807E-09
  1.1807E-09
  4.4090E-09
  4.4090E-09
  4.4090E-09
  4.4090E-09
  4.4090E-09
  4.4090E-09
  4.4090E-09
  4.4090E-09
  4.4090E-09
  1.6464E-08
  1.6464E-08
  1.6464E-08
  1.6464E-08
  1.6464E-08
  1.6464E-08
  1.6464E-08
  1.6464E-08
  1.6464E-08
  6.1477E-08
  6.1477E-08
  6.1477E-08
  6.1477E-08
  6.1477E-08
  6.1477E-08
  6.1477E-08
  6.1477E-08
  6.1477E-08
  2.2956E-07
  2.2956E-07
  2.2956E-07
  2.2956E-07
  2.2956E-07
  2.2956E-07
  2.2956E-07
  2.2956E-07
  2.2956E-07
  8.5721E-07
  8.5721E-07
  8.5721E-07
  8.5721E-07
  8.5721E-07
  8.5721E-07
  8.5721E-07
  8.5721E-07
  8.5721E-07
  3.2009E-06
  3.2009E-06
  3.2009E-06
  3.2009E-06
  3.2009E-06
  3.2009E-06
  3.2009E-06
  3.2009E-06
  3.2009E-06
  1.1952E-05
  1.1952E-05
  1.1952E-05
  1.1952E-05
  1.1952E-05
  1.1952E-05
  1.1952E-05
  1.1952E-05
  1.1952E-05
  4.4631E-05
  4.4631E-05
  4.4631E-05
  4.4631E-05
  4.4631E-05
  4.4631E-05
  4.4631E-05
  4.4631E-05
  4.4631E-05
  1.6666E-04
  1.6666E-04
  1.6666E-04
  1.6666E-04
  1.6666E-04
  1.6666E-04
  1.6666E-04
  1.6666E-04
  1.6666E-04
  6.2231E-04
  6.2231E-04
  6.2231E-04
  6.2231E-04
  6.2231E-04
  6.2231E-04
  6.2231E-04
  6.2231E-04
  6.2231E-04
  2.3238E-03
  2.3238E-03
  2.3238E-03
  2.3238E-03
  2.3238E-03
  2.3238E-03
  2.3238E-03
  2.3238E-03
  2.3238E-03
  8.6772E-03
  8.6772E-03
  8.6772E-03
  8.6772E-03
  8.6772E-03
  8.6772E-03
  8.6772E-03
  8.6772E-03
  8.6772E-03
  3.2401E-02
  3.2401E-02
  3.2401E-02
  3.2401E-02
  3.2401E-02
  3.2401E-02
  3.2401E-02
  3.2401E-02
  3.2401E-02
  1.2099E-01
  1.2099E-01
  1.2099E-01
  1.2099E-01
  1.2099E-01
  1.2099E-01
  1.2099E-01
  1.2099E-01
  1.2099E-01
  4.5178E-01
  4.5178E-01
  4.5178E-01
  4.5178E-01
  4.5178E-01
  4.5178E-01
  4.5178E-01
  4.5178E-01
  4.5178E-01
  7.1270E-01
  7.1270E-01
  7.1270E-01
  7.1270E-01
  7.1270E-01
  7.1270E-01
  7.1270E-01
  7.1270E-01
  7.1270E-01
   2.0200E-02
  7.0788E-12
  7.0788E-12
  7.0788E-12
  7.0788E-12
  7.0788E-12
  7.0788E-12
  7.0788E-12
  7.0788E-12
  7.0788E-12
  2.1256E-11
  2.1256E-11
  2.1256E-11
  2.1256E-11
  2.1256E-11
  2.1256E-11
  2.1256E-11
  2.1256E-11
  2.1256E-11
  8.5077E-11
  8.5077E-11
  8.5077E-11
  8.5077E-11
  8.5077E-11
  8.5077E-11
  8.5077E-11
  8.5077E-11
  8.5077E-11
  3.1922E-10
  3.1922E-10
  3.1922E-10
  3.1922E-10
  3.1922E-10
  3.1922E-10
  3.1922E-10
  3.1922E-10
  3.1922E-10
  1.1924E-09
  1.1924E-09
  1.1924E-09
  1.1924E-09
  1.1924E-09
  1.1924E-09
  1.1924E-09
  1.1924E-09
  1.1924E-09
  4.4527E-09
  4.4527E-09
  4.4527E-09
  4.4527E-09
  4.4527E-09
  4.4527E-09
  4.4527E-09
  4.4527E-09
  4.4527E-09
  1.6627E-08
  1.6627E-08
  1.6627E-08
  1.6627E-08
  1.6627E-08
  1.6627E-08
  1.6627E-08
  1.6627E-08
  1.6627E-08
  6.2086E-08
  6.2086E-08
  6.2086E-08
  6.2086E-08
  6.2086E-08
  6.2086E-08
  6.2086E-08
  6.2086E-08
  6.2086E-08
  2.3184E-07
  2.3184E-07
  2.3184E-07
  2.3184E-07
  2.3184E-07
  2.3184E-07
  2.3184E-07
  2.3184E-07
  2.3184E-07
  8.6570E-07
  8.6570E-07
  8.6570E-07
  8.6570E-07
  8.6570E-07
  8.6570E-07
  8.6570E-07
  8.6570E-07
  8.6570E-07
  3.2326E-06
  3.2326E-06
  3.2326E-06
  3.2326E-06
  3.2326E-06
  3.2326E-06
  3.2326E-06
  3.2326E-06
  3.2326E-06
  1.2071E-05
  1.2071E-05
  1.2071E-05
  1.2071E-05
  1.2071E-05
  1.2071E-05
  1.2071E-05
  1.2071E-05
  1.2071E-05
  4.5075E-05
  4.5075E-05
  4.5075E-05
  4.5075E-05
  4.5075E-05
  4.5075E-05
  4.5075E-05
  4.5075E-05
  4.5075E-05
  1.6831E-04
  1.6831E-04
  1.6831E-04
  1.6831E-04
  1.6831E-04
  1.6831E-04
  1.6831E-04
  1.6831E-04
  1.6831E-04
  6.2850E-04
  6.2850E-04
  6.2850E-04
  6.2850E-04
  6.2850E-04
  6.2850E-04
  6.2850E-04
  6.2850E-04
  6.2850E-04
  2.3469E-03
  2.3469E-03
  2.3469E-03
  2.3469E-03
  2.3469E-03
  2.3469E-03
  2.3469E-03
  2.3469E-03
  2.3469E-03
  8.7635E-03
  8.7635E-03
  8.7635E-03
  8.7635E-03
  8.7635E-03
  8.7635E-03
  8.7635E-03
  8.7635E-03
  8.7635E-03
  3.2724E-02
  3.2724E-02
  3.2724E-02
  3.2724E-02
  3.2724E-02
  3.2724E-02
  3.2724E-02
  3.2724E-02
  3.2724E-02
  1.2219E-01
  1.2219E-01
  1.2219E-01
  1.2219E-01
  1.2219E-01
  1.2219E-01
  1.2219E-01
  1.2219E-01
  1.2219E-01
  4.5629E-01
  4.5629E-01
  4.5629E-01
  4.5629E-01
  4.5629E-01
  4.5629E-01
  4.5629E-01
  4.5629E-01
  4.5629E-01
  7.1981E-01
  7.1981E-01
  7.1981E-01
  7.1981E-01
  7.1981E-01
  7.1981E-01
  7.1981E-01
  7.1981E-01
  7.1981E-01
   2.0300E-02
  7.1482E-12
  7.1482E-12
  7.1482E-12
  7.1482E-12
  7.1482E-12
  7.1482E-12
  7.1482E-12
  7.1482E-12
  7.1482E-12
  2.1465E-11
  2.1465E-11
  2.1465E-11
  2.1465E-11
  2.1465E-11
  2.1465E-11
  2.1465E-11
  2.1465E-11
  2.1465E-11
  8.5913E-11
  8.5913E-11
  8.5913E-11
  8.5913E-11
  8.5913E-11
  8.5913E-11
  8.5913E-11
  8.5913E-11
  8.5913E-11
  3.2235E-10
  3.2235E-10
  3.2235E-10
  3.2235E-10
  3.2235E-10
  3.2235E-10
  3.2235E-10
  3.2235E-10
  3.2235E-10
  1.2041E-09
  1.2041E-09
  1.2041E-09
  1.2041E-09
  1.2041E-09
  1.2041E-09
  1.2041E-09
  1.2041E-09
  1.2041E-09
  4.4965E-09
  4.4965E-09
  4.4965E-09
  4.4965E-09
  4.4965E-09
  4.4965E-09
  4.4965E-09
  4.4965E-09
  4.4965E-09
  1.6791E-08
  1.6791E-08
  1.6791E-08
  1.6791E-08
  1.6791E-08
  1.6791E-08
  1.6791E-08
  1.6791E-08
  1.6791E-08
  6.2698E-08
  6.2698E-08
  6.2698E-08
  6.2698E-08
  6.2698E-08
  6.2698E-08
  6.2698E-08
  6.2698E-08
  6.2698E-08
  2.3412E-07
  2.3412E-07
  2.3412E-07
  2.3412E-07
  2.3412E-07
  2.3412E-07
  2.3412E-07
  2.3412E-07
  2.3412E-07
  8.7425E-07
  8.7425E-07
  8.7425E-07
  8.7425E-07
  8.7425E-07
  8.7425E-07
  8.7425E-07
  8.7425E-07
  8.7425E-07
  3.2645E-06
  3.2645E-06
  3.2645E-06
  3.2645E-06
  3.2645E-06
  3.2645E-06
  3.2645E-06
  3.2645E-06
  3.2645E-06
  1.2190E-05
  1.2190E-05
  1.2190E-05
  1.2190E-05
  1.2190E-05
  1.2190E-05
  1.2190E-05
  1.2190E-05
  1.2190E-05
  4.5520E-05
  4.5520E-05
  4.5520E-05
  4.5520E-05
  4.5520E-05
  4.5520E-05
  4.5520E-05
  4.5520E-05
  4.5520E-05
  1.6998E-04
  1.6998E-04
  1.6998E-04
  1.6998E-04
  1.6998E-04
  1.6998E-04
  1.6998E-04
  1.6998E-04
  1.6998E-04
  6.3472E-04
  6.3472E-04
  6.3472E-04
  6.3472E-04
  6.3472E-04
  6.3472E-04
  6.3472E-04
  6.3472E-04
  6.3472E-04
  2.3701E-03
  2.3701E-03
  2.3701E-03
  2.3701E-03
  2.3701E-03
  2.3701E-03
  2.3701E-03
  2.3701E-03
  2.3701E-03
  8.8503E-03
  8.8503E-03
  8.8503E-03
  8.8503E-03
  8.8503E-03
  8.8503E-03
  8.8503E-03
  8.8503E-03
  8.8503E-03
  3.3048E-02
  3.3048E-02
  3.3048E-02
  3.3048E-02
  3.3048E-02
  3.3048E-02
  3.3048E-02
  3.3048E-02
  3.3048E-02
  1.2341E-01
  1.2341E-01
  1.2341E-01
  1.2341E-01
  1.2341E-01
  1.2341E-01
  1.2341E-01
  1.2341E-01
  1.2341E-01
  4.6081E-01
  4.6081E-01
  4.6081E-01
  4.6081E-01
  4.6081E-01
  4.6081E-01
  4.6081E-01
  4.6081E-01
  4.6081E-01
  7.2695E-01
  7.2695E-01
  7.2695E-01
  7.2695E-01
  7.2695E-01
  7.2695E-01
  7.2695E-01
  7.2695E-01
  7.2695E-01
   2.0400E-02
  7.2180E-12
  7.2180E-12
  7.2180E-12
  7.2180E-12
  7.2180E-12
  7.2180E-12
  7.2180E-12
  7.2180E-12
  7.2180E-12
  2.1674E-11
  2.1674E-11
  2.1674E-11
  2.1674E-11
  2.1674E-11
  2.1674E-11
  2.1674E-11
  2.1674E-11
  2.1674E-11
  8.6753E-11
  8.6753E-11
  8.6753E-11
  8.6753E-11
  8.6753E-11
  8.6753E-11
  8.6753E-11
  8.6753E-11
  8.6753E-11
  3.2551E-10
  3.2551E-10
  3.2551E-10
  3.2551E-10
  3.2551E-10
  3.2551E-10
  3.2551E-10
  3.2551E-10
  3.2551E-10
  1.2159E-09
  1.2159E-09
  1.2159E-09
  1.2159E-09
  1.2159E-09
  1.2159E-09
  1.2159E-09
  1.2159E-09
  1.2159E-09
  4.5405E-09
  4.5405E-09
  4.5405E-09
  4.5405E-09
  4.5405E-09
  4.5405E-09
  4.5405E-09
  4.5405E-09
  4.5405E-09
  1.6955E-08
  1.6955E-08
  1.6955E-08
  1.6955E-08
  1.6955E-08
  1.6955E-08
  1.6955E-08
  1.6955E-08
  1.6955E-08
  6.3313E-08
  6.3313E-08
  6.3313E-08
  6.3313E-08
  6.3313E-08
  6.3313E-08
  6.3313E-08
  6.3313E-08
  6.3313E-08
  2.3642E-07
  2.3642E-07
  2.3642E-07
  2.3642E-07
  2.3642E-07
  2.3642E-07
  2.3642E-07
  2.3642E-07
  2.3642E-07
  8.8283E-07
  8.8283E-07
  8.8283E-07
  8.8283E-07
  8.8283E-07
  8.8283E-07
  8.8283E-07
  8.8283E-07
  8.8283E-07
  3.2966E-06
  3.2966E-06
  3.2966E-06
  3.2966E-06
  3.2966E-06
  3.2966E-06
  3.2966E-06
  3.2966E-06
  3.2966E-06
  1.2310E-05
  1.2310E-05
  1.2310E-05
  1.2310E-05
  1.2310E-05
  1.2310E-05
  1.2310E-05
  1.2310E-05
  1.2310E-05
  4.5968E-05
  4.5968E-05
  4.5968E-05
  4.5968E-05
  4.5968E-05
  4.5968E-05
  4.5968E-05
  4.5968E-05
  4.5968E-05
  1.7165E-04
  1.7165E-04
  1.7165E-04
  1.7165E-04
  1.7165E-04
  1.7165E-04
  1.7165E-04
  1.7165E-04
  1.7165E-04
  6.4097E-04
  6.4097E-04
  6.4097E-04
  6.4097E-04
  6.4097E-04
  6.4097E-04
  6.4097E-04
  6.4097E-04
  6.4097E-04
  2.3935E-03
  2.3935E-03
  2.3935E-03
  2.3935E-03
  2.3935E-03
  2.3935E-03
  2.3935E-03
  2.3935E-03
  2.3935E-03
  8.9375E-03
  8.9375E-03
  8.9375E-03
  8.9375E-03
  8.9375E-03
  8.9375E-03
  8.9375E-03
  8.9375E-03
  8.9375E-03
  3.3374E-02
  3.3374E-02
  3.3374E-02
  3.3374E-02
  3.3374E-02
  3.3374E-02
  3.3374E-02
  3.3374E-02
  3.3374E-02
  1.2462E-01
  1.2462E-01
  1.2462E-01
  1.2462E-01
  1.2462E-01
  1.2462E-01
  1.2462E-01
  1.2462E-01
  1.2462E-01
  4.6536E-01
  4.6536E-01
  4.6536E-01
  4.6536E-01
  4.6536E-01
  4.6536E-01
  4.6536E-01
  4.6536E-01
  4.6536E-01
  7.3413E-01
  7.3413E-01
  7.3413E-01
  7.3413E-01
  7.3413E-01
  7.3413E-01
  7.3413E-01
  7.3413E-01
  7.3413E-01
   2.0500E-02
  7.2881E-12
  7.2881E-12
  7.2881E-12
  7.2881E-12
  7.2881E-12
  7.2881E-12
  7.2881E-12
  7.2881E-12
  7.2881E-12
  2.1885E-11
  2.1885E-11
  2.1885E-11
  2.1885E-11
  2.1885E-11
  2.1885E-11
  2.1885E-11
  2.1885E-11
  2.1885E-11
  8.7597E-11
  8.7597E-11
  8.7597E-11
  8.7597E-11
  8.7597E-11
  8.7597E-11
  8.7597E-11
  8.7597E-11
  8.7597E-11
  3.2868E-10
  3.2868E-10
  3.2868E-10
  3.2868E-10
  3.2868E-10
  3.2868E-10
  3.2868E-10
  3.2868E-10
  3.2868E-10
  1.2278E-09
  1.2278E-09
  1.2278E-09
  1.2278E-09
  1.2278E-09
  1.2278E-09
  1.2278E-09
  1.2278E-09
  1.2278E-09
  4.5848E-09
  4.5848E-09
  4.5848E-09
  4.5848E-09
  4.5848E-09
  4.5848E-09
  4.5848E-09
  4.5848E-09
  4.5848E-09
  1.7120E-08
  1.7120E-08
  1.7120E-08
  1.7120E-08
  1.7120E-08
  1.7120E-08
  1.7120E-08
  1.7120E-08
  1.7120E-08
  6.3930E-08
  6.3930E-08
  6.3930E-08
  6.3930E-08
  6.3930E-08
  6.3930E-08
  6.3930E-08
  6.3930E-08
  6.3930E-08
  2.3873E-07
  2.3873E-07
  2.3873E-07
  2.3873E-07
  2.3873E-07
  2.3873E-07
  2.3873E-07
  2.3873E-07
  2.3873E-07
  8.9145E-07
  8.9145E-07
  8.9145E-07
  8.9145E-07
  8.9145E-07
  8.9145E-07
  8.9145E-07
  8.9145E-07
  8.9145E-07
  3.3288E-06
  3.3288E-06
  3.3288E-06
  3.3288E-06
  3.3288E-06
  3.3288E-06
  3.3288E-06
  3.3288E-06
  3.3288E-06
  1.2430E-05
  1.2430E-05
  1.2430E-05
  1.2430E-05
  1.2430E-05
  1.2430E-05
  1.2430E-05
  1.2430E-05
  1.2430E-05
  4.6417E-05
  4.6417E-05
  4.6417E-05
  4.6417E-05
  4.6417E-05
  4.6417E-05
  4.6417E-05
  4.6417E-05
  4.6417E-05
  1.7333E-04
  1.7333E-04
  1.7333E-04
  1.7333E-04
  1.7333E-04
  1.7333E-04
  1.7333E-04
  1.7333E-04
  1.7333E-04
  6.4724E-04
  6.4724E-04
  6.4724E-04
  6.4724E-04
  6.4724E-04
  6.4724E-04
  6.4724E-04
  6.4724E-04
  6.4724E-04
  2.4169E-03
  2.4169E-03
  2.4169E-03
  2.4169E-03
  2.4169E-03
  2.4169E-03
  2.4169E-03
  2.4169E-03
  2.4169E-03
  9.0252E-03
  9.0252E-03
  9.0252E-03
  9.0252E-03
  9.0252E-03
  9.0252E-03
  9.0252E-03
  9.0252E-03
  9.0252E-03
  3.3702E-02
  3.3702E-02
  3.3702E-02
  3.3702E-02
  3.3702E-02
  3.3702E-02
  3.3702E-02
  3.3702E-02
  3.3702E-02
  1.2585E-01
  1.2585E-01
  1.2585E-01
  1.2585E-01
  1.2585E-01
  1.2585E-01
  1.2585E-01
  1.2585E-01
  1.2585E-01
  4.6994E-01
  4.6994E-01
  4.6994E-01
  4.6994E-01
  4.6994E-01
  4.6994E-01
  4.6994E-01
  4.6994E-01
  4.6994E-01
  7.4134E-01
  7.4134E-01
  7.4134E-01
  7.4134E-01
  7.4134E-01
  7.4134E-01
  7.4134E-01
  7.4134E-01
  7.4134E-01
   2.0600E-02
  7.3585E-12
  7.3585E-12
  7.3585E-12
  7.3585E-12
  7.3585E-12
  7.3585E-12
  7.3585E-12
  7.3585E-12
  7.3585E-12
  2.2097E-11
  2.2097E-11
  2.2097E-11
  2.2097E-11
  2.2097E-11
  2.2097E-11
  2.2097E-11
  2.2097E-11
  2.2097E-11
  8.8445E-11
  8.8445E-11
  8.8445E-11
  8.8445E-11
  8.8445E-11
  8.8445E-11
  8.8445E-11
  8.8445E-11
  8.8445E-11
  3.3186E-10
  3.3186E-10
  3.3186E-10
  3.3186E-10
  3.3186E-10
  3.3186E-10
  3.3186E-10
  3.3186E-10
  3.3186E-10
  1.2397E-09
  1.2397E-09
  1.2397E-09
  1.2397E-09
  1.2397E-09
  1.2397E-09
  1.2397E-09
  1.2397E-09
  1.2397E-09
  4.6292E-09
  4.6292E-09
  4.6292E-09
  4.6292E-09
  4.6292E-09
  4.6292E-09
  4.6292E-09
  4.6292E-09
  4.6292E-09
  1.7286E-08
  1.7286E-08
  1.7286E-08
  1.7286E-08
  1.7286E-08
  1.7286E-08
  1.7286E-08
  1.7286E-08
  1.7286E-08
  6.4551E-08
  6.4551E-08
  6.4551E-08
  6.4551E-08
  6.4551E-08
  6.4551E-08
  6.4551E-08
  6.4551E-08
  6.4551E-08
  2.4105E-07
  2.4105E-07
  2.4105E-07
  2.4105E-07
  2.4105E-07
  2.4105E-07
  2.4105E-07
  2.4105E-07
  2.4105E-07
  9.0011E-07
  9.0011E-07
  9.0011E-07
  9.0011E-07
  9.0011E-07
  9.0011E-07
  9.0011E-07
  9.0011E-07
  9.0011E-07
  3.3612E-06
  3.3612E-06
  3.3612E-06
  3.3612E-06
  3.3612E-06
  3.3612E-06
  3.3612E-06
  3.3612E-06
  3.3612E-06
  1.2551E-05
  1.2551E-05
  1.2551E-05
  1.2551E-05
  1.2551E-05
  1.2551E-05
  1.2551E-05
  1.2551E-05
  1.2551E-05
  4.6869E-05
  4.6869E-05
  4.6869E-05
  4.6869E-05
  4.6869E-05
  4.6869E-05
  4.6869E-05
  4.6869E-05
  4.6869E-05
  1.7502E-04
  1.7502E-04
  1.7502E-04
  1.7502E-04
  1.7502E-04
  1.7502E-04
  1.7502E-04
  1.7502E-04
  1.7502E-04
  6.5355E-04
  6.5355E-04
  6.5355E-04
  6.5355E-04
  6.5355E-04
  6.5355E-04
  6.5355E-04
  6.5355E-04
  6.5355E-04
  2.4405E-03
  2.4405E-03
  2.4405E-03
  2.4405E-03
  2.4405E-03
  2.4405E-03
  2.4405E-03
  2.4405E-03
  2.4405E-03
  9.1133E-03
  9.1133E-03
  9.1133E-03
  9.1133E-03
  9.1133E-03
  9.1133E-03
  9.1133E-03
  9.1133E-03
  9.1133E-03
  3.4031E-02
  3.4031E-02
  3.4031E-02
  3.4031E-02
  3.4031E-02
  3.4031E-02
  3.4031E-02
  3.4031E-02
  3.4031E-02
  1.2708E-01
  1.2708E-01
  1.2708E-01
  1.2708E-01
  1.2708E-01
  1.2708E-01
  1.2708E-01
  1.2708E-01
  1.2708E-01
  4.7453E-01
  4.7453E-01
  4.7453E-01
  4.7453E-01
  4.7453E-01
  4.7453E-01
  4.7453E-01
  4.7453E-01
  4.7453E-01
  7.4859E-01
  7.4859E-01
  7.4859E-01
  7.4859E-01
  7.4859E-01
  7.4859E-01
  7.4859E-01
  7.4859E-01
  7.4859E-01
   2.0700E-02
  7.4293E-12
  7.4293E-12
  7.4293E-12
  7.4293E-12
  7.4293E-12
  7.4293E-12
  7.4293E-12
  7.4293E-12
  7.4293E-12
  2.2309E-11
  2.2309E-11
  2.2309E-11
  2.2309E-11
  2.2309E-11
  2.2309E-11
  2.2309E-11
  2.2309E-11
  2.2309E-11
  8.9297E-11
  8.9297E-11
  8.9297E-11
  8.9297E-11
  8.9297E-11
  8.9297E-11
  8.9297E-11
  8.9297E-11
  8.9297E-11
  3.3506E-10
  3.3506E-10
  3.3506E-10
  3.3506E-10
  3.3506E-10
  3.3506E-10
  3.3506E-10
  3.3506E-10
  3.3506E-10
  1.2516E-09
  1.2516E-09
  1.2516E-09
  1.2516E-09
  1.2516E-09
  1.2516E-09
  1.2516E-09
  1.2516E-09
  1.2516E-09
  4.6739E-09
  4.6739E-09
  4.6739E-09
  4.6739E-09
  4.6739E-09
  4.6739E-09
  4.6739E-09
  4.6739E-09
  4.6739E-09
  1.7453E-08
  1.7453E-08
  1.7453E-08
  1.7453E-08
  1.7453E-08
  1.7453E-08
  1.7453E-08
  1.7453E-08
  1.7453E-08
  6.5175E-08
  6.5175E-08
  6.5175E-08
  6.5175E-08
  6.5175E-08
  6.5175E-08
  6.5175E-08
  6.5175E-08
  6.5175E-08
  2.4338E-07
  2.4338E-07
  2.4338E-07
  2.4338E-07
  2.4338E-07
  2.4338E-07
  2.4338E-07
  2.4338E-07
  2.4338E-07
  9.0882E-07
  9.0882E-07
  9.0882E-07
  9.0882E-07
  9.0882E-07
  9.0882E-07
  9.0882E-07
  9.0882E-07
  9.0882E-07
  3.3937E-06
  3.3937E-06
  3.3937E-06
  3.3937E-06
  3.3937E-06
  3.3937E-06
  3.3937E-06
  3.3937E-06
  3.3937E-06
  1.2673E-05
  1.2673E-05
  1.2673E-05
  1.2673E-05
  1.2673E-05
  1.2673E-05
  1.2673E-05
  1.2673E-05
  1.2673E-05
  4.7323E-05
  4.7323E-05
  4.7323E-05
  4.7323E-05
  4.7323E-05
  4.7323E-05
  4.7323E-05
  4.7323E-05
  4.7323E-05
  1.7672E-04
  1.7672E-04
  1.7672E-04
  1.7672E-04
  1.7672E-04
  1.7672E-04
  1.7672E-04
  1.7672E-04
  1.7672E-04
  6.5989E-04
  6.5989E-04
  6.5989E-04
  6.5989E-04
  6.5989E-04
  6.5989E-04
  6.5989E-04
  6.5989E-04
  6.5989E-04
  2.4642E-03
  2.4642E-03
  2.4642E-03
  2.4642E-03
  2.4642E-03
  2.4642E-03
  2.4642E-03
  2.4642E-03
  2.4642E-03
  9.2018E-03
  9.2018E-03
  9.2018E-03
  9.2018E-03
  9.2018E-03
  9.2018E-03
  9.2018E-03
  9.2018E-03
  9.2018E-03
  3.4361E-02
  3.4361E-02
  3.4361E-02
  3.4361E-02
  3.4361E-02
  3.4361E-02
  3.4361E-02
  3.4361E-02
  3.4361E-02
  1.2831E-01
  1.2831E-01
  1.2831E-01
  1.2831E-01
  1.2831E-01
  1.2831E-01
  1.2831E-01
  1.2831E-01
  1.2831E-01
  4.7915E-01
  4.7915E-01
  4.7915E-01
  4.7915E-01
  4.7915E-01
  4.7915E-01
  4.7915E-01
  4.7915E-01
  4.7915E-01
  7.5587E-01
  7.5587E-01
  7.5587E-01
  7.5587E-01
  7.5587E-01
  7.5587E-01
  7.5587E-01
  7.5587E-01
  7.5587E-01
   2.0800E-02
  7.5004E-12
  7.5004E-12
  7.5004E-12
  7.5004E-12
  7.5004E-12
  7.5004E-12
  7.5004E-12
  7.5004E-12
  7.5004E-12
  2.2523E-11
  2.2523E-11
  2.2523E-11
  2.2523E-11
  2.2523E-11
  2.2523E-11
  2.2523E-11
  2.2523E-11
  2.2523E-11
  9.0153E-11
  9.0153E-11
  9.0153E-11
  9.0153E-11
  9.0153E-11
  9.0153E-11
  9.0153E-11
  9.0153E-11
  9.0153E-11
  3.3827E-10
  3.3827E-10
  3.3827E-10
  3.3827E-10
  3.3827E-10
  3.3827E-10
  3.3827E-10
  3.3827E-10
  3.3827E-10
  1.2636E-09
  1.2636E-09
  1.2636E-09
  1.2636E-09
  1.2636E-09
  1.2636E-09
  1.2636E-09
  1.2636E-09
  1.2636E-09
  4.7188E-09
  4.7188E-09
  4.7188E-09
  4.7188E-09
  4.7188E-09
  4.7188E-09
  4.7188E-09
  4.7188E-09
  4.7188E-09
  1.7621E-08
  1.7621E-08
  1.7621E-08
  1.7621E-08
  1.7621E-08
  1.7621E-08
  1.7621E-08
  1.7621E-08
  1.7621E-08
  6.5801E-08
  6.5801E-08
  6.5801E-08
  6.5801E-08
  6.5801E-08
  6.5801E-08
  6.5801E-08
  6.5801E-08
  6.5801E-08
  2.4572E-07
  2.4572E-07
  2.4572E-07
  2.4572E-07
  2.4572E-07
  2.4572E-07
  2.4572E-07
  2.4572E-07
  2.4572E-07
  9.1757E-07
  9.1757E-07
  9.1757E-07
  9.1757E-07
  9.1757E-07
  9.1757E-07
  9.1757E-07
  9.1757E-07
  9.1757E-07
  3.4264E-06
  3.4264E-06
  3.4264E-06
  3.4264E-06
  3.4264E-06
  3.4264E-06
  3.4264E-06
  3.4264E-06
  3.4264E-06
  1.2795E-05
  1.2795E-05
  1.2795E-05
  1.2795E-05
  1.2795E-05
  1.2795E-05
  1.2795E-05
  1.2795E-05
  1.2795E-05
  4.7780E-05
  4.7780E-05
  4.7780E-05
  4.7780E-05
  4.7780E-05
  4.7780E-05
  4.7780E-05
  4.7780E-05
  4.7780E-05
  1.7842E-04
  1.7842E-04
  1.7842E-04
  1.7842E-04
  1.7842E-04
  1.7842E-04
  1.7842E-04
  1.7842E-04
  1.7842E-04
  6.6626E-04
  6.6626E-04
  6.6626E-04
  6.6626E-04
  6.6626E-04
  6.6626E-04
  6.6626E-04
  6.6626E-04
  6.6626E-04
  2.4880E-03
  2.4880E-03
  2.4880E-03
  2.4880E-03
  2.4880E-03
  2.4880E-03
  2.4880E-03
  2.4880E-03
  2.4880E-03
  9.2907E-03
  9.2907E-03
  9.2907E-03
  9.2907E-03
  9.2907E-03
  9.2907E-03
  9.2907E-03
  9.2907E-03
  9.2907E-03
  3.4694E-02
  3.4694E-02
  3.4694E-02
  3.4694E-02
  3.4694E-02
  3.4694E-02
  3.4694E-02
  3.4694E-02
  3.4694E-02
  1.2955E-01
  1.2955E-01
  1.2955E-01
  1.2955E-01
  1.2955E-01
  1.2955E-01
  1.2955E-01
  1.2955E-01
  1.2955E-01
  4.8378E-01
  4.8378E-01
  4.8378E-01
  4.8378E-01
  4.8378E-01
  4.8378E-01
  4.8378E-01
  4.8378E-01
  4.8378E-01
  7.6319E-01
  7.6319E-01
  7.6319E-01
  7.6319E-01
  7.6319E-01
  7.6319E-01
  7.6319E-01
  7.6319E-01
  7.6319E-01
   2.0900E-02
  7.5718E-12
  7.5718E-12
  7.5718E-12
  7.5718E-12
  7.5718E-12
  7.5718E-12
  7.5718E-12
  7.5718E-12
  7.5718E-12
  2.2738E-11
  2.2738E-11
  2.2738E-11
  2.2738E-11
  2.2738E-11
  2.2738E-11
  2.2738E-11
  2.2738E-11
  2.2738E-11
  9.1012E-11
  9.1012E-11
  9.1012E-11
  9.1012E-11
  9.1012E-11
  9.1012E-11
  9.1012E-11
  9.1012E-11
  9.1012E-11
  3.4150E-10
  3.4150E-10
  3.4150E-10
  3.4150E-10
  3.4150E-10
  3.4150E-10
  3.4150E-10
  3.4150E-10
  3.4150E-10
  1.2757E-09
  1.2757E-09
  1.2757E-09
  1.2757E-09
  1.2757E-09
  1.2757E-09
  1.2757E-09
  1.2757E-09
  1.2757E-09
  4.7638E-09
  4.7638E-09
  4.7638E-09
  4.7638E-09
  4.7638E-09
  4.7638E-09
  4.7638E-09
  4.7638E-09
  4.7638E-09
  1.7789E-08
  1.7789E-08
  1.7789E-08
  1.7789E-08
  1.7789E-08
  1.7789E-08
  1.7789E-08
  1.7789E-08
  1.7789E-08
  6.6431E-08
  6.6431E-08
  6.6431E-08
  6.6431E-08
  6.6431E-08
  6.6431E-08
  6.6431E-08
  6.6431E-08
  6.6431E-08
  2.4807E-07
  2.4807E-07
  2.4807E-07
  2.4807E-07
  2.4807E-07
  2.4807E-07
  2.4807E-07
  2.4807E-07
  2.4807E-07
  9.2635E-07
  9.2635E-07
  9.2635E-07
  9.2635E-07
  9.2635E-07
  9.2635E-07
  9.2635E-07
  9.2635E-07
  9.2635E-07
  3.4592E-06
  3.4592E-06
  3.4592E-06
  3.4592E-06
  3.4592E-06
  3.4592E-06
  3.4592E-06
  3.4592E-06
  3.4592E-06
  1.2918E-05
  1.2918E-05
  1.2918E-05
  1.2918E-05
  1.2918E-05
  1.2918E-05
  1.2918E-05
  1.2918E-05
  1.2918E-05
  4.8238E-05
  4.8238E-05
  4.8238E-05
  4.8238E-05
  4.8238E-05
  4.8238E-05
  4.8238E-05
  4.8238E-05
  4.8238E-05
  1.8013E-04
  1.8013E-04
  1.8013E-04
  1.8013E-04
  1.8013E-04
  1.8013E-04
  1.8013E-04
  1.8013E-04
  1.8013E-04
  6.7266E-04
  6.7266E-04
  6.7266E-04
  6.7266E-04
  6.7266E-04
  6.7266E-04
  6.7266E-04
  6.7266E-04
  6.7266E-04
  2.5119E-03
  2.5119E-03
  2.5119E-03
  2.5119E-03
  2.5119E-03
  2.5119E-03
  2.5119E-03
  2.5119E-03
  2.5119E-03
  9.3800E-03
  9.3800E-03
  9.3800E-03
  9.3800E-03
  9.3800E-03
  9.3800E-03
  9.3800E-03
  9.3800E-03
  9.3800E-03
  3.5027E-02
  3.5027E-02
  3.5027E-02
  3.5027E-02
  3.5027E-02
  3.5027E-02
  3.5027E-02
  3.5027E-02
  3.5027E-02
  1.3080E-01
  1.3080E-01
  1.3080E-01
  1.3080E-01
  1.3080E-01
  1.3080E-01
  1.3080E-01
  1.3080E-01
  1.3080E-01
  4.8844E-01
  4.8844E-01
  4.8844E-01
  4.8844E-01
  4.8844E-01
  4.8844E-01
  4.8844E-01
  4.8844E-01
  4.8844E-01
  7.7054E-01
  7.7054E-01
  7.7054E-01
  7.7054E-01
  7.7054E-01
  7.7054E-01
  7.7054E-01
  7.7054E-01
  7.7054E-01
   2.1000E-02
  7.6435E-12
  7.6435E-12
  7.6435E-12
  7.6435E-12
  7.6435E-12
  7.6435E-12
  7.6435E-12
  7.6435E-12
  7.6435E-12
  2.2953E-11
  2.2953E-11
  2.2953E-11
  2.2953E-11
  2.2953E-11
  2.2953E-11
  2.2953E-11
  2.2953E-11
  2.2953E-11
  9.1876E-11
  9.1876E-11
  9.1876E-11
  9.1876E-11
  9.1876E-11
  9.1876E-11
  9.1876E-11
  9.1876E-11
  9.1876E-11
  3.4474E-10
  3.4474E-10
  3.4474E-10
  3.4474E-10
  3.4474E-10
  3.4474E-10
  3.4474E-10
  3.4474E-10
  3.4474E-10
  1.2878E-09
  1.2878E-09
  1.2878E-09
  1.2878E-09
  1.2878E-09
  1.2878E-09
  1.2878E-09
  1.2878E-09
  1.2878E-09
  4.8091E-09
  4.8091E-09
  4.8091E-09
  4.8091E-09
  4.8091E-09
  4.8091E-09
  4.8091E-09
  4.8091E-09
  4.8091E-09
  1.7959E-08
  1.7959E-08
  1.7959E-08
  1.7959E-08
  1.7959E-08
  1.7959E-08
  1.7959E-08
  1.7959E-08
  1.7959E-08
  6.7063E-08
  6.7063E-08
  6.7063E-08
  6.7063E-08
  6.7063E-08
  6.7063E-08
  6.7063E-08
  6.7063E-08
  6.7063E-08
  2.5043E-07
  2.5043E-07
  2.5043E-07
  2.5043E-07
  2.5043E-07
  2.5043E-07
  2.5043E-07
  2.5043E-07
  2.5043E-07
  9.3518E-07
  9.3518E-07
  9.3518E-07
  9.3518E-07
  9.3518E-07
  9.3518E-07
  9.3518E-07
  9.3518E-07
  9.3518E-07
  3.4922E-06
  3.4922E-06
  3.4922E-06
  3.4922E-06
  3.4922E-06
  3.4922E-06
  3.4922E-06
  3.4922E-06
  3.4922E-06
  1.3041E-05
  1.3041E-05
  1.3041E-05
  1.3041E-05
  1.3041E-05
  1.3041E-05
  1.3041E-05
  1.3041E-05
  1.3041E-05
  4.8699E-05
  4.8699E-05
  4.8699E-05
  4.8699E-05
  4.8699E-05
  4.8699E-05
  4.8699E-05
  4.8699E-05
  4.8699E-05
  1.8185E-04
  1.8185E-04
  1.8185E-04
  1.8185E-04
  1.8185E-04
  1.8185E-04
  1.8185E-04
  1.8185E-04
  1.8185E-04
  6.7909E-04
  6.7909E-04
  6.7909E-04
  6.7909E-04
  6.7909E-04
  6.7909E-04
  6.7909E-04
  6.7909E-04
  6.7909E-04
  2.5359E-03
  2.5359E-03
  2.5359E-03
  2.5359E-03
  2.5359E-03
  2.5359E-03
  2.5359E-03
  2.5359E-03
  2.5359E-03
  9.4698E-03
  9.4698E-03
  9.4698E-03
  9.4698E-03
  9.4698E-03
  9.4698E-03
  9.4698E-03
  9.4698E-03
  9.4698E-03
  3.5363E-02
  3.5363E-02
  3.5363E-02
  3.5363E-02
  3.5363E-02
  3.5363E-02
  3.5363E-02
  3.5363E-02
  3.5363E-02
  1.3205E-01
  1.3205E-01
  1.3205E-01
  1.3205E-01
  1.3205E-01
  1.3205E-01
  1.3205E-01
  1.3205E-01
  1.3205E-01
  4.9313E-01
  4.9313E-01
  4.9313E-01
  4.9313E-01
  4.9313E-01
  4.9313E-01
  4.9313E-01
  4.9313E-01
  4.9313E-01
  7.7793E-01
  7.7793E-01
  7.7793E-01
  7.7793E-01
  7.7793E-01
  7.7793E-01
  7.7793E-01
  7.7793E-01
  7.7793E-01
   2.1100E-02
  7.7156E-12
  7.7156E-12
  7.7156E-12
  7.7156E-12
  7.7156E-12
  7.7156E-12
  7.7156E-12
  7.7156E-12
  7.7156E-12
  2.3170E-11
  2.3170E-11
  2.3170E-11
  2.3170E-11
  2.3170E-11
  2.3170E-11
  2.3170E-11
  2.3170E-11
  2.3170E-11
  9.2744E-11
  9.2744E-11
  9.2744E-11
  9.2744E-11
  9.2744E-11
  9.2744E-11
  9.2744E-11
  9.2744E-11
  9.2744E-11
  3.4800E-10
  3.4800E-10
  3.4800E-10
  3.4800E-10
  3.4800E-10
  3.4800E-10
  3.4800E-10
  3.4800E-10
  3.4800E-10
  1.3000E-09
  1.3000E-09
  1.3000E-09
  1.3000E-09
  1.3000E-09
  1.3000E-09
  1.3000E-09
  1.3000E-09
  1.3000E-09
  4.8546E-09
  4.8546E-09
  4.8546E-09
  4.8546E-09
  4.8546E-09
  4.8546E-09
  4.8546E-09
  4.8546E-09
  4.8546E-09
  1.8129E-08
  1.8129E-08
  1.8129E-08
  1.8129E-08
  1.8129E-08
  1.8129E-08
  1.8129E-08
  1.8129E-08
  1.8129E-08
  6.7698E-08
  6.7698E-08
  6.7698E-08
  6.7698E-08
  6.7698E-08
  6.7698E-08
  6.7698E-08
  6.7698E-08
  6.7698E-08
  2.5281E-07
  2.5281E-07
  2.5281E-07
  2.5281E-07
  2.5281E-07
  2.5281E-07
  2.5281E-07
  2.5281E-07
  2.5281E-07
  9.4405E-07
  9.4405E-07
  9.4405E-07
  9.4405E-07
  9.4405E-07
  9.4405E-07
  9.4405E-07
  9.4405E-07
  9.4405E-07
  3.5254E-06
  3.5254E-06
  3.5254E-06
  3.5254E-06
  3.5254E-06
  3.5254E-06
  3.5254E-06
  3.5254E-06
  3.5254E-06
  1.3165E-05
  1.3165E-05
  1.3165E-05
  1.3165E-05
  1.3165E-05
  1.3165E-05
  1.3165E-05
  1.3165E-05
  1.3165E-05
  4.9161E-05
  4.9161E-05
  4.9161E-05
  4.9161E-05
  4.9161E-05
  4.9161E-05
  4.9161E-05
  4.9161E-05
  4.9161E-05
  1.8358E-04
  1.8358E-04
  1.8358E-04
  1.8358E-04
  1.8358E-04
  1.8358E-04
  1.8358E-04
  1.8358E-04
  1.8358E-04
  6.8555E-04
  6.8555E-04
  6.8555E-04
  6.8555E-04
  6.8555E-04
  6.8555E-04
  6.8555E-04
  6.8555E-04
  6.8555E-04
  2.5601E-03
  2.5601E-03
  2.5601E-03
  2.5601E-03
  2.5601E-03
  2.5601E-03
  2.5601E-03
  2.5601E-03
  2.5601E-03
  9.5600E-03
  9.5600E-03
  9.5600E-03
  9.5600E-03
  9.5600E-03
  9.5600E-03
  9.5600E-03
  9.5600E-03
  9.5600E-03
  3.5700E-02
  3.5700E-02
  3.5700E-02
  3.5700E-02
  3.5700E-02
  3.5700E-02
  3.5700E-02
  3.5700E-02
  3.5700E-02
  1.3331E-01
  1.3331E-01
  1.3331E-01
  1.3331E-01
  1.3331E-01
  1.3331E-01
  1.3331E-01
  1.3331E-01
  1.3331E-01
  4.9783E-01
  4.9783E-01
  4.9783E-01
  4.9783E-01
  4.9783E-01
  4.9783E-01
  4.9783E-01
  4.9783E-01
  4.9783E-01
  7.8536E-01
  7.8536E-01
  7.8536E-01
  7.8536E-01
  7.8536E-01
  7.8536E-01
  7.8536E-01
  7.8536E-01
  7.8536E-01
   2.1200E-02
  7.7879E-12
  7.7879E-12
  7.7879E-12
  7.7879E-12
  7.7879E-12
  7.7879E-12
  7.7879E-12
  7.7879E-12
  7.7879E-12
  2.3388E-11
  2.3388E-11
  2.3388E-11
  2.3388E-11
  2.3388E-11
  2.3388E-11
  2.3388E-11
  2.3388E-11
  2.3388E-11
  9.3615E-11
  9.3615E-11
  9.3615E-11
  9.3615E-11
  9.3615E-11
  9.3615E-11
  9.3615E-11
  9.3615E-11
  9.3615E-11
  3.5127E-10
  3.5127E-10
  3.5127E-10
  3.5127E-10
  3.5127E-10
  3.5127E-10
  3.5127E-10
  3.5127E-10
  3.5127E-10
  1.3122E-09
  1.3122E-09
  1.3122E-09
  1.3122E-09
  1.3122E-09
  1.3122E-09
  1.3122E-09
  1.3122E-09
  1.3122E-09
  4.9003E-09
  4.9003E-09
  4.9003E-09
  4.9003E-09
  4.9003E-09
  4.9003E-09
  4.9003E-09
  4.9003E-09
  4.9003E-09
  1.8300E-08
  1.8300E-08
  1.8300E-08
  1.8300E-08
  1.8300E-08
  1.8300E-08
  1.8300E-08
  1.8300E-08
  1.8300E-08
  6.8336E-08
  6.8336E-08
  6.8336E-08
  6.8336E-08
  6.8336E-08
  6.8336E-08
  6.8336E-08
  6.8336E-08
  6.8336E-08
  2.5519E-07
  2.5519E-07
  2.5519E-07
  2.5519E-07
  2.5519E-07
  2.5519E-07
  2.5519E-07
  2.5519E-07
  2.5519E-07
  9.5296E-07
  9.5296E-07
  9.5296E-07
  9.5296E-07
  9.5296E-07
  9.5296E-07
  9.5296E-07
  9.5296E-07
  9.5296E-07
  3.5587E-06
  3.5587E-06
  3.5587E-06
  3.5587E-06
  3.5587E-06
  3.5587E-06
  3.5587E-06
  3.5587E-06
  3.5587E-06
  1.3289E-05
  1.3289E-05
  1.3289E-05
  1.3289E-05
  1.3289E-05
  1.3289E-05
  1.3289E-05
  1.3289E-05
  1.3289E-05
  4.9626E-05
  4.9626E-05
  4.9626E-05
  4.9626E-05
  4.9626E-05
  4.9626E-05
  4.9626E-05
  4.9626E-05
  4.9626E-05
  1.8532E-04
  1.8532E-04
  1.8532E-04
  1.8532E-04
  1.8532E-04
  1.8532E-04
  1.8532E-04
  1.8532E-04
  1.8532E-04
  6.9204E-04
  6.9204E-04
  6.9204E-04
  6.9204E-04
  6.9204E-04
  6.9204E-04
  6.9204E-04
  6.9204E-04
  6.9204E-04
  2.5843E-03
  2.5843E-03
  2.5843E-03
  2.5843E-03
  2.5843E-03
  2.5843E-03
  2.5843E-03
  2.5843E-03
  2.5843E-03
  9.6506E-03
  9.6506E-03
  9.6506E-03
  9.6506E-03
  9.6506E-03
  9.6506E-03
  9.6506E-03
  9.6506E-03
  9.6506E-03
  3.6038E-02
  3.6038E-02
  3.6038E-02
  3.6038E-02
  3.6038E-02
  3.6038E-02
  3.6038E-02
  3.6038E-02
  3.6038E-02
  1.3458E-01
  1.3458E-01
  1.3458E-01
  1.3458E-01
  1.3458E-01
  1.3458E-01
  1.3458E-01
  1.3458E-01
  1.3458E-01
  5.0256E-01
  5.0256E-01
  5.0256E-01
  5.0256E-01
  5.0256E-01
  5.0256E-01
  5.0256E-01
  5.0256E-01
  5.0256E-01
  7.9281E-01
  7.9281E-01
  7.9281E-01
  7.9281E-01
  7.9281E-01
  7.9281E-01
  7.9281E-01
  7.9281E-01
  7.9281E-01
   2.1300E-02
  7.8607E-12
  7.8607E-12
  7.8607E-12
  7.8607E-12
  7.8607E-12
  7.8607E-12
  7.8607E-12
  7.8607E-12
  7.8607E-12
  2.3606E-11
  2.3606E-11
  2.3606E-11
  2.3606E-11
  2.3606E-11
  2.3606E-11
  2.3606E-11
  2.3606E-11
  2.3606E-11
  9.4491E-11
  9.4491E-11
  9.4491E-11
  9.4491E-11
  9.4491E-11
  9.4491E-11
  9.4491E-11
  9.4491E-11
  9.4491E-11
  3.5456E-10
  3.5456E-10
  3.5456E-10
  3.5456E-10
  3.5456E-10
  3.5456E-10
  3.5456E-10
  3.5456E-10
  3.5456E-10
  1.3245E-09
  1.3245E-09
  1.3245E-09
  1.3245E-09
  1.3245E-09
  1.3245E-09
  1.3245E-09
  1.3245E-09
  1.3245E-09
  4.9463E-09
  4.9463E-09
  4.9463E-09
  4.9463E-09
  4.9463E-09
  4.9463E-09
  4.9463E-09
  4.9463E-09
  4.9463E-09
  1.8471E-08
  1.8471E-08
  1.8471E-08
  1.8471E-08
  1.8471E-08
  1.8471E-08
  1.8471E-08
  1.8471E-08
  1.8471E-08
  6.8977E-08
  6.8977E-08
  6.8977E-08
  6.8977E-08
  6.8977E-08
  6.8977E-08
  6.8977E-08
  6.8977E-08
  6.8977E-08
  2.5759E-07
  2.5759E-07
  2.5759E-07
  2.5759E-07
  2.5759E-07
  2.5759E-07
  2.5759E-07
  2.5759E-07
  2.5759E-07
  9.6191E-07
  9.6191E-07
  9.6191E-07
  9.6191E-07
  9.6191E-07
  9.6191E-07
  9.6191E-07
  9.6191E-07
  9.6191E-07
  3.5921E-06
  3.5921E-06
  3.5921E-06
  3.5921E-06
  3.5921E-06
  3.5921E-06
  3.5921E-06
  3.5921E-06
  3.5921E-06
  1.3414E-05
  1.3414E-05
  1.3414E-05
  1.3414E-05
  1.3414E-05
  1.3414E-05
  1.3414E-05
  1.3414E-05
  1.3414E-05
  5.0093E-05
  5.0093E-05
  5.0093E-05
  5.0093E-05
  5.0093E-05
  5.0093E-05
  5.0093E-05
  5.0093E-05
  5.0093E-05
  1.8706E-04
  1.8706E-04
  1.8706E-04
  1.8706E-04
  1.8706E-04
  1.8706E-04
  1.8706E-04
  1.8706E-04
  1.8706E-04
  6.9856E-04
  6.9856E-04
  6.9856E-04
  6.9856E-04
  6.9856E-04
  6.9856E-04
  6.9856E-04
  6.9856E-04
  6.9856E-04
  2.6087E-03
  2.6087E-03
  2.6087E-03
  2.6087E-03
  2.6087E-03
  2.6087E-03
  2.6087E-03
  2.6087E-03
  2.6087E-03
  9.7417E-03
  9.7417E-03
  9.7417E-03
  9.7417E-03
  9.7417E-03
  9.7417E-03
  9.7417E-03
  9.7417E-03
  9.7417E-03
  3.6379E-02
  3.6379E-02
  3.6379E-02
  3.6379E-02
  3.6379E-02
  3.6379E-02
  3.6379E-02
  3.6379E-02
  3.6379E-02
  1.3585E-01
  1.3585E-01
  1.3585E-01
  1.3585E-01
  1.3585E-01
  1.3585E-01
  1.3585E-01
  1.3585E-01
  1.3585E-01
  5.0731E-01
  5.0731E-01
  5.0731E-01
  5.0731E-01
  5.0731E-01
  5.0731E-01
  5.0731E-01
  5.0731E-01
  5.0731E-01
  8.0031E-01
  8.0031E-01
  8.0031E-01
  8.0031E-01
  8.0031E-01
  8.0031E-01
  8.0031E-01
  8.0031E-01
  8.0031E-01
   2.1400E-02
  7.9337E-12
  7.9337E-12
  7.9337E-12
  7.9337E-12
  7.9337E-12
  7.9337E-12
  7.9337E-12
  7.9337E-12
  7.9337E-12
  2.3826E-11
  2.3826E-11
  2.3826E-11
  2.3826E-11
  2.3826E-11
  2.3826E-11
  2.3826E-11
  2.3826E-11
  2.3826E-11
  9.5370E-11
  9.5370E-11
  9.5370E-11
  9.5370E-11
  9.5370E-11
  9.5370E-11
  9.5370E-11
  9.5370E-11
  9.5370E-11
  3.5786E-10
  3.5786E-10
  3.5786E-10
  3.5786E-10
  3.5786E-10
  3.5786E-10
  3.5786E-10
  3.5786E-10
  3.5786E-10
  1.3368E-09
  1.3368E-09
  1.3368E-09
  1.3368E-09
  1.3368E-09
  1.3368E-09
  1.3368E-09
  1.3368E-09
  1.3368E-09
  4.9924E-09
  4.9924E-09
  4.9924E-09
  4.9924E-09
  4.9924E-09
  4.9924E-09
  4.9924E-09
  4.9924E-09
  4.9924E-09
  1.8643E-08
  1.8643E-08
  1.8643E-08
  1.8643E-08
  1.8643E-08
  1.8643E-08
  1.8643E-08
  1.8643E-08
  1.8643E-08
  6.9621E-08
  6.9621E-08
  6.9621E-08
  6.9621E-08
  6.9621E-08
  6.9621E-08
  6.9621E-08
  6.9621E-08
  6.9621E-08
  2.5999E-07
  2.5999E-07
  2.5999E-07
  2.5999E-07
  2.5999E-07
  2.5999E-07
  2.5999E-07
  2.5999E-07
  2.5999E-07
  9.7091E-07
  9.7091E-07
  9.7091E-07
  9.7091E-07
  9.7091E-07
  9.7091E-07
  9.7091E-07
  9.7091E-07
  9.7091E-07
  3.6257E-06
  3.6257E-06
  3.6257E-06
  3.6257E-06
  3.6257E-06
  3.6257E-06
  3.6257E-06
  3.6257E-06
  3.6257E-06
  1.3540E-05
  1.3540E-05
  1.3540E-05
  1.3540E-05
  1.3540E-05
  1.3540E-05
  1.3540E-05
  1.3540E-05
  1.3540E-05
  5.0562E-05
  5.0562E-05
  5.0562E-05
  5.0562E-05
  5.0562E-05
  5.0562E-05
  5.0562E-05
  5.0562E-05
  5.0562E-05
  1.8882E-04
  1.8882E-04
  1.8882E-04
  1.8882E-04
  1.8882E-04
  1.8882E-04
  1.8882E-04
  1.8882E-04
  1.8882E-04
  7.0511E-04
  7.0511E-04
  7.0511E-04
  7.0511E-04
  7.0511E-04
  7.0511E-04
  7.0511E-04
  7.0511E-04
  7.0511E-04
  2.6331E-03
  2.6331E-03
  2.6331E-03
  2.6331E-03
  2.6331E-03
  2.6331E-03
  2.6331E-03
  2.6331E-03
  2.6331E-03
  9.8331E-03
  9.8331E-03
  9.8331E-03
  9.8331E-03
  9.8331E-03
  9.8331E-03
  9.8331E-03
  9.8331E-03
  9.8331E-03
  3.6720E-02
  3.6720E-02
  3.6720E-02
  3.6720E-02
  3.6720E-02
  3.6720E-02
  3.6720E-02
  3.6720E-02
  3.6720E-02
  1.3713E-01
  1.3713E-01
  1.3713E-01
  1.3713E-01
  1.3713E-01
  1.3713E-01
  1.3713E-01
  1.3713E-01
  1.3713E-01
  5.1208E-01
  5.1208E-01
  5.1208E-01
  5.1208E-01
  5.1208E-01
  5.1208E-01
  5.1208E-01
  5.1208E-01
  5.1208E-01
  8.0784E-01
  8.0784E-01
  8.0784E-01
  8.0784E-01
  8.0784E-01
  8.0784E-01
  8.0784E-01
  8.0784E-01
  8.0784E-01
   2.1500E-02
  8.0070E-12
  8.0070E-12
  8.0070E-12
  8.0070E-12
  8.0070E-12
  8.0070E-12
  8.0070E-12
  8.0070E-12
  8.0070E-12
  2.4046E-11
  2.4046E-11
  2.4046E-11
  2.4046E-11
  2.4046E-11
  2.4046E-11
  2.4046E-11
  2.4046E-11
  2.4046E-11
  9.6254E-11
  9.6254E-11
  9.6254E-11
  9.6254E-11
  9.6254E-11
  9.6254E-11
  9.6254E-11
  9.6254E-11
  9.6254E-11
  3.6118E-10
  3.6118E-10
  3.6118E-10
  3.6118E-10
  3.6118E-10
  3.6118E-10
  3.6118E-10
  3.6118E-10
  3.6118E-10
  1.3492E-09
  1.3492E-09
  1.3492E-09
  1.3492E-09
  1.3492E-09
  1.3492E-09
  1.3492E-09
  1.3492E-09
  1.3492E-09
  5.0387E-09
  5.0387E-09
  5.0387E-09
  5.0387E-09
  5.0387E-09
  5.0387E-09
  5.0387E-09
  5.0387E-09
  5.0387E-09
  1.8817E-08
  1.8817E-08
  1.8817E-08
  1.8817E-08
  1.8817E-08
  1.8817E-08
  1.8817E-08
  1.8817E-08
  1.8817E-08
  7.0268E-08
  7.0268E-08
  7.0268E-08
  7.0268E-08
  7.0268E-08
  7.0268E-08
  7.0268E-08
  7.0268E-08
  7.0268E-08
  2.6241E-07
  2.6241E-07
  2.6241E-07
  2.6241E-07
  2.6241E-07
  2.6241E-07
  2.6241E-07
  2.6241E-07
  2.6241E-07
  9.7994E-07
  9.7994E-07
  9.7994E-07
  9.7994E-07
  9.7994E-07
  9.7994E-07
  9.7994E-07
  9.7994E-07
  9.7994E-07
  3.6595E-06
  3.6595E-06
  3.6595E-06
  3.6595E-06
  3.6595E-06
  3.6595E-06
  3.6595E-06
  3.6595E-06
  3.6595E-06
  1.3666E-05
  1.3666E-05
  1.3666E-05
  1.3666E-05
  1.3666E-05
  1.3666E-05
  1.3666E-05
  1.3666E-05
  1.3666E-05
  5.1034E-05
  5.1034E-05
  5.1034E-05
  5.1034E-05
  5.1034E-05
  5.1034E-05
  5.1034E-05
  5.1034E-05
  5.1034E-05
  1.9058E-04
  1.9058E-04
  1.9058E-04
  1.9058E-04
  1.9058E-04
  1.9058E-04
  1.9058E-04
  1.9058E-04
  1.9058E-04
  7.1170E-04
  7.1170E-04
  7.1170E-04
  7.1170E-04
  7.1170E-04
  7.1170E-04
  7.1170E-04
  7.1170E-04
  7.1170E-04
  2.6577E-03
  2.6577E-03
  2.6577E-03
  2.6577E-03
  2.6577E-03
  2.6577E-03
  2.6577E-03
  2.6577E-03
  2.6577E-03
  9.9250E-03
  9.9250E-03
  9.9250E-03
  9.9250E-03
  9.9250E-03
  9.9250E-03
  9.9250E-03
  9.9250E-03
  9.9250E-03
  3.7064E-02
  3.7064E-02
  3.7064E-02
  3.7064E-02
  3.7064E-02
  3.7064E-02
  3.7064E-02
  3.7064E-02
  3.7064E-02
  1.3841E-01
  1.3841E-01
  1.3841E-01
  1.3841E-01
  1.3841E-01
  1.3841E-01
  1.3841E-01
  1.3841E-01
  1.3841E-01
  5.1688E-01
  5.1688E-01
  5.1688E-01
  5.1688E-01
  5.1688E-01
  5.1688E-01
  5.1688E-01
  5.1688E-01
  5.1688E-01
  8.1540E-01
  8.1540E-01
  8.1540E-01
  8.1540E-01
  8.1540E-01
  8.1540E-01
  8.1540E-01
  8.1540E-01
  8.1540E-01
   2.1600E-02
  8.0807E-12
  8.0807E-12
  8.0807E-12
  8.0807E-12
  8.0807E-12
  8.0807E-12
  8.0807E-12
  8.0807E-12
  8.0807E-12
  2.4268E-11
  2.4268E-11
  2.4268E-11
  2.4268E-11
  2.4268E-11
  2.4268E-11
  2.4268E-11
  2.4268E-11
  2.4268E-11
  9.7141E-11
  9.7141E-11
  9.7141E-11
  9.7141E-11
  9.7141E-11
  9.7141E-11
  9.7141E-11
  9.7141E-11
  9.7141E-11
  3.6451E-10
  3.6451E-10
  3.6451E-10
  3.6451E-10
  3.6451E-10
  3.6451E-10
  3.6451E-10
  3.6451E-10
  3.6451E-10
  1.3617E-09
  1.3617E-09
  1.3617E-09
  1.3617E-09
  1.3617E-09
  1.3617E-09
  1.3617E-09
  1.3617E-09
  1.3617E-09
  5.0853E-09
  5.0853E-09
  5.0853E-09
  5.0853E-09
  5.0853E-09
  5.0853E-09
  5.0853E-09
  5.0853E-09
  5.0853E-09
  1.8990E-08
  1.8990E-08
  1.8990E-08
  1.8990E-08
  1.8990E-08
  1.8990E-08
  1.8990E-08
  1.8990E-08
  1.8990E-08
  7.0918E-08
  7.0918E-08
  7.0918E-08
  7.0918E-08
  7.0918E-08
  7.0918E-08
  7.0918E-08
  7.0918E-08
  7.0918E-08
  2.6484E-07
  2.6484E-07
  2.6484E-07
  2.6484E-07
  2.6484E-07
  2.6484E-07
  2.6484E-07
  2.6484E-07
  2.6484E-07
  9.8901E-07
  9.8901E-07
  9.8901E-07
  9.8901E-07
  9.8901E-07
  9.8901E-07
  9.8901E-07
  9.8901E-07
  9.8901E-07
  3.6934E-06
  3.6934E-06
  3.6934E-06
  3.6934E-06
  3.6934E-06
  3.6934E-06
  3.6934E-06
  3.6934E-06
  3.6934E-06
  1.3793E-05
  1.3793E-05
  1.3793E-05
  1.3793E-05
  1.3793E-05
  1.3793E-05
  1.3793E-05
  1.3793E-05
  1.3793E-05
  5.1507E-05
  5.1507E-05
  5.1507E-05
  5.1507E-05
  5.1507E-05
  5.1507E-05
  5.1507E-05
  5.1507E-05
  5.1507E-05
  1.9235E-04
  1.9235E-04
  1.9235E-04
  1.9235E-04
  1.9235E-04
  1.9235E-04
  1.9235E-04
  1.9235E-04
  1.9235E-04
  7.1831E-04
  7.1831E-04
  7.1831E-04
  7.1831E-04
  7.1831E-04
  7.1831E-04
  7.1831E-04
  7.1831E-04
  7.1831E-04
  2.6824E-03
  2.6824E-03
  2.6824E-03
  2.6824E-03
  2.6824E-03
  2.6824E-03
  2.6824E-03
  2.6824E-03
  2.6824E-03
  1.0017E-02
  1.0017E-02
  1.0017E-02
  1.0017E-02
  1.0017E-02
  1.0017E-02
  1.0017E-02
  1.0017E-02
  1.0017E-02
  3.7409E-02
  3.7409E-02
  3.7409E-02
  3.7409E-02
  3.7409E-02
  3.7409E-02
  3.7409E-02
  3.7409E-02
  3.7409E-02
  1.3970E-01
  1.3970E-01
  1.3970E-01
  1.3970E-01
  1.3970E-01
  1.3970E-01
  1.3970E-01
  1.3970E-01
  1.3970E-01
  5.2169E-01
  5.2169E-01
  5.2169E-01
  5.2169E-01
  5.2169E-01
  5.2169E-01
  5.2169E-01
  5.2169E-01
  5.2169E-01
  8.2300E-01
  8.2300E-01
  8.2300E-01
  8.2300E-01
  8.2300E-01
  8.2300E-01
  8.2300E-01
  8.2300E-01
  8.2300E-01
   2.1700E-02
  8.1547E-12
  8.1547E-12
  8.1547E-12
  8.1547E-12
  8.1547E-12
  8.1547E-12
  8.1547E-12
  8.1547E-12
  8.1547E-12
  2.4490E-11
  2.4490E-11
  2.4490E-11
  2.4490E-11
  2.4490E-11
  2.4490E-11
  2.4490E-11
  2.4490E-11
  2.4490E-11
  9.8032E-11
  9.8032E-11
  9.8032E-11
  9.8032E-11
  9.8032E-11
  9.8032E-11
  9.8032E-11
  9.8032E-11
  9.8032E-11
  3.6786E-10
  3.6786E-10
  3.6786E-10
  3.6786E-10
  3.6786E-10
  3.6786E-10
  3.6786E-10
  3.6786E-10
  3.6786E-10
  1.3742E-09
  1.3742E-09
  1.3742E-09
  1.3742E-09
  1.3742E-09
  1.3742E-09
  1.3742E-09
  1.3742E-09
  1.3742E-09
  5.1320E-09
  5.1320E-09
  5.1320E-09
  5.1320E-09
  5.1320E-09
  5.1320E-09
  5.1320E-09
  5.1320E-09
  5.1320E-09
  1.9165E-08
  1.9165E-08
  1.9165E-08
  1.9165E-08
  1.9165E-08
  1.9165E-08
  1.9165E-08
  1.9165E-08
  1.9165E-08
  7.1571E-08
  7.1571E-08
  7.1571E-08
  7.1571E-08
  7.1571E-08
  7.1571E-08
  7.1571E-08
  7.1571E-08
  7.1571E-08
  2.6728E-07
  2.6728E-07
  2.6728E-07
  2.6728E-07
  2.6728E-07
  2.6728E-07
  2.6728E-07
  2.6728E-07
  2.6728E-07
  9.9813E-07
  9.9813E-07
  9.9813E-07
  9.9813E-07
  9.9813E-07
  9.9813E-07
  9.9813E-07
  9.9813E-07
  9.9813E-07
  3.7274E-06
  3.7274E-06
  3.7274E-06
  3.7274E-06
  3.7274E-06
  3.7274E-06
  3.7274E-06
  3.7274E-06
  3.7274E-06
  1.3920E-05
  1.3920E-05
  1.3920E-05
  1.3920E-05
  1.3920E-05
  1.3920E-05
  1.3920E-05
  1.3920E-05
  1.3920E-05
  5.1983E-05
  5.1983E-05
  5.1983E-05
  5.1983E-05
  5.1983E-05
  5.1983E-05
  5.1983E-05
  5.1983E-05
  5.1983E-05
  1.9413E-04
  1.9413E-04
  1.9413E-04
  1.9413E-04
  1.9413E-04
  1.9413E-04
  1.9413E-04
  1.9413E-04
  1.9413E-04
  7.2495E-04
  7.2495E-04
  7.2495E-04
  7.2495E-04
  7.2495E-04
  7.2495E-04
  7.2495E-04
  7.2495E-04
  7.2495E-04
  2.7073E-03
  2.7073E-03
  2.7073E-03
  2.7073E-03
  2.7073E-03
  2.7073E-03
  2.7073E-03
  2.7073E-03
  2.7073E-03
  1.0110E-02
  1.0110E-02
  1.0110E-02
  1.0110E-02
  1.0110E-02
  1.0110E-02
  1.0110E-02
  1.0110E-02
  1.0110E-02
  3.7755E-02
  3.7755E-02
  3.7755E-02
  3.7755E-02
  3.7755E-02
  3.7755E-02
  3.7755E-02
  3.7755E-02
  3.7755E-02
  1.4099E-01
  1.4099E-01
  1.4099E-01
  1.4099E-01
  1.4099E-01
  1.4099E-01
  1.4099E-01
  1.4099E-01
  1.4099E-01
  5.2653E-01
  5.2653E-01
  5.2653E-01
  5.2653E-01
  5.2653E-01
  5.2653E-01
  5.2653E-01
  5.2653E-01
  5.2653E-01
  8.3064E-01
  8.3064E-01
  8.3064E-01
  8.3064E-01
  8.3064E-01
  8.3064E-01
  8.3064E-01
  8.3064E-01
  8.3064E-01
   2.1800E-02
  8.2291E-12
  8.2291E-12
  8.2291E-12
  8.2291E-12
  8.2291E-12
  8.2291E-12
  8.2291E-12
  8.2291E-12
  8.2291E-12
  2.4714E-11
  2.4714E-11
  2.4714E-11
  2.4714E-11
  2.4714E-11
  2.4714E-11
  2.4714E-11
  2.4714E-11
  2.4714E-11
  9.8927E-11
  9.8927E-11
  9.8927E-11
  9.8927E-11
  9.8927E-11
  9.8927E-11
  9.8927E-11
  9.8927E-11
  9.8927E-11
  3.7122E-10
  3.7122E-10
  3.7122E-10
  3.7122E-10
  3.7122E-10
  3.7122E-10
  3.7122E-10
  3.7122E-10
  3.7122E-10
  1.3868E-09
  1.3868E-09
  1.3868E-09
  1.3868E-09
  1.3868E-09
  1.3868E-09
  1.3868E-09
  1.3868E-09
  1.3868E-09
  5.1790E-09
  5.1790E-09
  5.1790E-09
  5.1790E-09
  5.1790E-09
  5.1790E-09
  5.1790E-09
  5.1790E-09
  5.1790E-09
  1.9341E-08
  1.9341E-08
  1.9341E-08
  1.9341E-08
  1.9341E-08
  1.9341E-08
  1.9341E-08
  1.9341E-08
  1.9341E-08
  7.2227E-08
  7.2227E-08
  7.2227E-08
  7.2227E-08
  7.2227E-08
  7.2227E-08
  7.2227E-08
  7.2227E-08
  7.2227E-08
  2.6973E-07
  2.6973E-07
  2.6973E-07
  2.6973E-07
  2.6973E-07
  2.6973E-07
  2.6973E-07
  2.6973E-07
  2.6973E-07
  1.0073E-06
  1.0073E-06
  1.0073E-06
  1.0073E-06
  1.0073E-06
  1.0073E-06
  1.0073E-06
  1.0073E-06
  1.0073E-06
  3.7617E-06
  3.7617E-06
  3.7617E-06
  3.7617E-06
  3.7617E-06
  3.7617E-06
  3.7617E-06
  3.7617E-06
  3.7617E-06
  1.4048E-05
  1.4048E-05
  1.4048E-05
  1.4048E-05
  1.4048E-05
  1.4048E-05
  1.4048E-05
  1.4048E-05
  1.4048E-05
  5.2461E-05
  5.2461E-05
  5.2461E-05
  5.2461E-05
  5.2461E-05
  5.2461E-05
  5.2461E-05
  5.2461E-05
  5.2461E-05
  1.9591E-04
  1.9591E-04
  1.9591E-04
  1.9591E-04
  1.9591E-04
  1.9591E-04
  1.9591E-04
  1.9591E-04
  1.9591E-04
  7.3162E-04
  7.3162E-04
  7.3162E-04
  7.3162E-04
  7.3162E-04
  7.3162E-04
  7.3162E-04
  7.3162E-04
  7.3162E-04
  2.7322E-03
  2.7322E-03
  2.7322E-03
  2.7322E-03
  2.7322E-03
  2.7322E-03
  2.7322E-03
  2.7322E-03
  2.7322E-03
  1.0203E-02
  1.0203E-02
  1.0203E-02
  1.0203E-02
  1.0203E-02
  1.0203E-02
  1.0203E-02
  1.0203E-02
  1.0203E-02
  3.8103E-02
  3.8103E-02
  3.8103E-02
  3.8103E-02
  3.8103E-02
  3.8103E-02
  3.8103E-02
  3.8103E-02
  3.8103E-02
  1.4230E-01
  1.4230E-01
  1.4230E-01
  1.4230E-01
  1.4230E-01
  1.4230E-01
  1.4230E-01
  1.4230E-01
  1.4230E-01
  5.3139E-01
  5.3139E-01
  5.3139E-01
  5.3139E-01
  5.3139E-01
  5.3139E-01
  5.3139E-01
  5.3139E-01
  5.3139E-01
  8.3831E-01
  8.3831E-01
  8.3831E-01
  8.3831E-01
  8.3831E-01
  8.3831E-01
  8.3831E-01
  8.3831E-01
  8.3831E-01
   2.1900E-02
  8.3037E-12
  8.3037E-12
  8.3037E-12
  8.3037E-12
  8.3037E-12
  8.3037E-12
  8.3037E-12
  8.3037E-12
  8.3037E-12
  2.4938E-11
  2.4938E-11
  2.4938E-11
  2.4938E-11
  2.4938E-11
  2.4938E-11
  2.4938E-11
  2.4938E-11
  2.4938E-11
  9.9827E-11
  9.9827E-11
  9.9827E-11
  9.9827E-11
  9.9827E-11
  9.9827E-11
  9.9827E-11
  9.9827E-11
  9.9827E-11
  3.7459E-10
  3.7459E-10
  3.7459E-10
  3.7459E-10
  3.7459E-10
  3.7459E-10
  3.7459E-10
  3.7459E-10
  3.7459E-10
  1.3994E-09
  1.3994E-09
  1.3994E-09
  1.3994E-09
  1.3994E-09
  1.3994E-09
  1.3994E-09
  1.3994E-09
  1.3994E-09
  5.2261E-09
  5.2261E-09
  5.2261E-09
  5.2261E-09
  5.2261E-09
  5.2261E-09
  5.2261E-09
  5.2261E-09
  5.2261E-09
  1.9517E-08
  1.9517E-08
  1.9517E-08
  1.9517E-08
  1.9517E-08
  1.9517E-08
  1.9517E-08
  1.9517E-08
  1.9517E-08
  7.2885E-08
  7.2885E-08
  7.2885E-08
  7.2885E-08
  7.2885E-08
  7.2885E-08
  7.2885E-08
  7.2885E-08
  7.2885E-08
  2.7219E-07
  2.7219E-07
  2.7219E-07
  2.7219E-07
  2.7219E-07
  2.7219E-07
  2.7219E-07
  2.7219E-07
  2.7219E-07
  1.0165E-06
  1.0165E-06
  1.0165E-06
  1.0165E-06
  1.0165E-06
  1.0165E-06
  1.0165E-06
  1.0165E-06
  1.0165E-06
  3.7960E-06
  3.7960E-06
  3.7960E-06
  3.7960E-06
  3.7960E-06
  3.7960E-06
  3.7960E-06
  3.7960E-06
  3.7960E-06
  1.4176E-05
  1.4176E-05
  1.4176E-05
  1.4176E-05
  1.4176E-05
  1.4176E-05
  1.4176E-05
  1.4176E-05
  1.4176E-05
  5.2940E-05
  5.2940E-05
  5.2940E-05
  5.2940E-05
  5.2940E-05
  5.2940E-05
  5.2940E-05
  5.2940E-05
  5.2940E-05
  1.9770E-04
  1.9770E-04
  1.9770E-04
  1.9770E-04
  1.9770E-04
  1.9770E-04
  1.9770E-04
  1.9770E-04
  1.9770E-04
  7.3832E-04
  7.3832E-04
  7.3832E-04
  7.3832E-04
  7.3832E-04
  7.3832E-04
  7.3832E-04
  7.3832E-04
  7.3832E-04
  2.7572E-03
  2.7572E-03
  2.7572E-03
  2.7572E-03
  2.7572E-03
  2.7572E-03
  2.7572E-03
  2.7572E-03
  2.7572E-03
  1.0297E-02
  1.0297E-02
  1.0297E-02
  1.0297E-02
  1.0297E-02
  1.0297E-02
  1.0297E-02
  1.0297E-02
  1.0297E-02
  3.8453E-02
  3.8453E-02
  3.8453E-02
  3.8453E-02
  3.8453E-02
  3.8453E-02
  3.8453E-02
  3.8453E-02
  3.8453E-02
  1.4360E-01
  1.4360E-01
  1.4360E-01
  1.4360E-01
  1.4360E-01
  1.4360E-01
  1.4360E-01
  1.4360E-01
  1.4360E-01
  5.3628E-01
  5.3628E-01
  5.3628E-01
  5.3628E-01
  5.3628E-01
  5.3628E-01
  5.3628E-01
  5.3628E-01
  5.3628E-01
  8.4601E-01
  8.4601E-01
  8.4601E-01
  8.4601E-01
  8.4601E-01
  8.4601E-01
  8.4601E-01
  8.4601E-01
  8.4601E-01
   2.2000E-02
  8.3787E-12
  8.3787E-12
  8.3787E-12
  8.3787E-12
  8.3787E-12
  8.3787E-12
  8.3787E-12
  8.3787E-12
  8.3787E-12
  2.5164E-11
  2.5164E-11
  2.5164E-11
  2.5164E-11
  2.5164E-11
  2.5164E-11
  2.5164E-11
  2.5164E-11
  2.5164E-11
  1.0073E-10
  1.0073E-10
  1.0073E-10
  1.0073E-10
  1.0073E-10
  1.0073E-10
  1.0073E-10
  1.0073E-10
  1.0073E-10
  3.7798E-10
  3.7798E-10
  3.7798E-10
  3.7798E-10
  3.7798E-10
  3.7798E-10
  3.7798E-10
  3.7798E-10
  3.7798E-10
  1.4121E-09
  1.4121E-09
  1.4121E-09
  1.4121E-09
  1.4121E-09
  1.4121E-09
  1.4121E-09
  1.4121E-09
  1.4121E-09
  5.2735E-09
  5.2735E-09
  5.2735E-09
  5.2735E-09
  5.2735E-09
  5.2735E-09
  5.2735E-09
  5.2735E-09
  5.2735E-09
  1.9694E-08
  1.9694E-08
  1.9694E-08
  1.9694E-08
  1.9694E-08
  1.9694E-08
  1.9694E-08
  1.9694E-08
  1.9694E-08
  7.3547E-08
  7.3547E-08
  7.3547E-08
  7.3547E-08
  7.3547E-08
  7.3547E-08
  7.3547E-08
  7.3547E-08
  7.3547E-08
  2.7466E-07
  2.7466E-07
  2.7466E-07
  2.7466E-07
  2.7466E-07
  2.7466E-07
  2.7466E-07
  2.7466E-07
  2.7466E-07
  1.0257E-06
  1.0257E-06
  1.0257E-06
  1.0257E-06
  1.0257E-06
  1.0257E-06
  1.0257E-06
  1.0257E-06
  1.0257E-06
  3.8305E-06
  3.8305E-06
  3.8305E-06
  3.8305E-06
  3.8305E-06
  3.8305E-06
  3.8305E-06
  3.8305E-06
  3.8305E-06
  1.4305E-05
  1.4305E-05
  1.4305E-05
  1.4305E-05
  1.4305E-05
  1.4305E-05
  1.4305E-05
  1.4305E-05
  1.4305E-05
  5.3423E-05
  5.3423E-05
  5.3423E-05
  5.3423E-05
  5.3423E-05
  5.3423E-05
  5.3423E-05
  5.3423E-05
  5.3423E-05
  1.9951E-04
  1.9951E-04
  1.9951E-04
  1.9951E-04
  1.9951E-04
  1.9951E-04
  1.9951E-04
  1.9951E-04
  1.9951E-04
  7.4505E-04
  7.4505E-04
  7.4505E-04
  7.4505E-04
  7.4505E-04
  7.4505E-04
  7.4505E-04
  7.4505E-04
  7.4505E-04
  2.7824E-03
  2.7824E-03
  2.7824E-03
  2.7824E-03
  2.7824E-03
  2.7824E-03
  2.7824E-03
  2.7824E-03
  2.7824E-03
  1.0391E-02
  1.0391E-02
  1.0391E-02
  1.0391E-02
  1.0391E-02
  1.0391E-02
  1.0391E-02
  1.0391E-02
  1.0391E-02
  3.8805E-02
  3.8805E-02
  3.8805E-02
  3.8805E-02
  3.8805E-02
  3.8805E-02
  3.8805E-02
  3.8805E-02
  3.8805E-02
  1.4492E-01
  1.4492E-01
  1.4492E-01
  1.4492E-01
  1.4492E-01
  1.4492E-01
  1.4492E-01
  1.4492E-01
  1.4492E-01
  5.4118E-01
  5.4118E-01
  5.4118E-01
  5.4118E-01
  5.4118E-01
  5.4118E-01
  5.4118E-01
  5.4118E-01
  5.4118E-01
  8.5375E-01
  8.5375E-01
  8.5375E-01
  8.5375E-01
  8.5375E-01
  8.5375E-01
  8.5375E-01
  8.5375E-01
  8.5375E-01
   2.2100E-02
  8.4540E-12
  8.4540E-12
  8.4540E-12
  8.4540E-12
  8.4540E-12
  8.4540E-12
  8.4540E-12
  8.4540E-12
  8.4540E-12
  2.5390E-11
  2.5390E-11
  2.5390E-11
  2.5390E-11
  2.5390E-11
  2.5390E-11
  2.5390E-11
  2.5390E-11
  2.5390E-11
  1.0164E-10
  1.0164E-10
  1.0164E-10
  1.0164E-10
  1.0164E-10
  1.0164E-10
  1.0164E-10
  1.0164E-10
  1.0164E-10
  3.8139E-10
  3.8139E-10
  3.8139E-10
  3.8139E-10
  3.8139E-10
  3.8139E-10
  3.8139E-10
  3.8139E-10
  3.8139E-10
  1.4248E-09
  1.4248E-09
  1.4248E-09
  1.4248E-09
  1.4248E-09
  1.4248E-09
  1.4248E-09
  1.4248E-09
  1.4248E-09
  5.3211E-09
  5.3211E-09
  5.3211E-09
  5.3211E-09
  5.3211E-09
  5.3211E-09
  5.3211E-09
  5.3211E-09
  5.3211E-09
  1.9872E-08
  1.9872E-08
  1.9872E-08
  1.9872E-08
  1.9872E-08
  1.9872E-08
  1.9872E-08
  1.9872E-08
  1.9872E-08
  7.4211E-08
  7.4211E-08
  7.4211E-08
  7.4211E-08
  7.4211E-08
  7.4211E-08
  7.4211E-08
  7.4211E-08
  7.4211E-08
  2.7714E-07
  2.7714E-07
  2.7714E-07
  2.7714E-07
  2.7714E-07
  2.7714E-07
  2.7714E-07
  2.7714E-07
  2.7714E-07
  1.0350E-06
  1.0350E-06
  1.0350E-06
  1.0350E-06
  1.0350E-06
  1.0350E-06
  1.0350E-06
  1.0350E-06
  1.0350E-06
  3.8652E-06
  3.8652E-06
  3.8652E-06
  3.8652E-06
  3.8652E-06
  3.8652E-06
  3.8652E-06
  3.8652E-06
  3.8652E-06
  1.4435E-05
  1.4435E-05
  1.4435E-05
  1.4435E-05
  1.4435E-05
  1.4435E-05
  1.4435E-05
  1.4435E-05
  1.4435E-05
  5.3907E-05
  5.3907E-05
  5.3907E-05
  5.3907E-05
  5.3907E-05
  5.3907E-05
  5.3907E-05
  5.3907E-05
  5.3907E-05
  2.0132E-04
  2.0132E-04
  2.0132E-04
  2.0132E-04
  2.0132E-04
  2.0132E-04
  2.0132E-04
  2.0132E-04
  2.0132E-04
  7.5182E-04
  7.5182E-04
  7.5182E-04
  7.5182E-04
  7.5182E-04
  7.5182E-04
  7.5182E-04
  7.5182E-04
  7.5182E-04
  2.8077E-03
  2.8077E-03
  2.8077E-03
  2.8077E-03
  2.8077E-03
  2.8077E-03
  2.8077E-03
  2.8077E-03
  2.8077E-03
  1.0485E-02
  1.0485E-02
  1.0485E-02
  1.0485E-02
  1.0485E-02
  1.0485E-02
  1.0485E-02
  1.0485E-02
  1.0485E-02
  3.9157E-02
  3.9157E-02
  3.9157E-02
  3.9157E-02
  3.9157E-02
  3.9157E-02
  3.9157E-02
  3.9157E-02
  3.9157E-02
  1.4623E-01
  1.4623E-01
  1.4623E-01
  1.4623E-01
  1.4623E-01
  1.4623E-01
  1.4623E-01
  1.4623E-01
  1.4623E-01
  5.4611E-01
  5.4611E-01
  5.4611E-01
  5.4611E-01
  5.4611E-01
  5.4611E-01
  5.4611E-01
  5.4611E-01
  5.4611E-01
  8.6153E-01
  8.6153E-01
  8.6153E-01
  8.6153E-01
  8.6153E-01
  8.6153E-01
  8.6153E-01
  8.6153E-01
  8.6153E-01
   2.2200E-02
  8.5296E-12
  8.5296E-12
  8.5296E-12
  8.5296E-12
  8.5296E-12
  8.5296E-12
  8.5296E-12
  8.5296E-12
  8.5296E-12
  2.5617E-11
  2.5617E-11
  2.5617E-11
  2.5617E-11
  2.5617E-11
  2.5617E-11
  2.5617E-11
  2.5617E-11
  2.5617E-11
  1.0255E-10
  1.0255E-10
  1.0255E-10
  1.0255E-10
  1.0255E-10
  1.0255E-10
  1.0255E-10
  1.0255E-10
  1.0255E-10
  3.8481E-10
  3.8481E-10
  3.8481E-10
  3.8481E-10
  3.8481E-10
  3.8481E-10
  3.8481E-10
  3.8481E-10
  3.8481E-10
  1.4376E-09
  1.4376E-09
  1.4376E-09
  1.4376E-09
  1.4376E-09
  1.4376E-09
  1.4376E-09
  1.4376E-09
  1.4376E-09
  5.3689E-09
  5.3689E-09
  5.3689E-09
  5.3689E-09
  5.3689E-09
  5.3689E-09
  5.3689E-09
  5.3689E-09
  5.3689E-09
  2.0050E-08
  2.0050E-08
  2.0050E-08
  2.0050E-08
  2.0050E-08
  2.0050E-08
  2.0050E-08
  2.0050E-08
  2.0050E-08
  7.4879E-08
  7.4879E-08
  7.4879E-08
  7.4879E-08
  7.4879E-08
  7.4879E-08
  7.4879E-08
  7.4879E-08
  7.4879E-08
  2.7964E-07
  2.7964E-07
  2.7964E-07
  2.7964E-07
  2.7964E-07
  2.7964E-07
  2.7964E-07
  2.7964E-07
  2.7964E-07
  1.0443E-06
  1.0443E-06
  1.0443E-06
  1.0443E-06
  1.0443E-06
  1.0443E-06
  1.0443E-06
  1.0443E-06
  1.0443E-06
  3.9001E-06
  3.9001E-06
  3.9001E-06
  3.9001E-06
  3.9001E-06
  3.9001E-06
  3.9001E-06
  3.9001E-06
  3.9001E-06
  1.4565E-05
  1.4565E-05
  1.4565E-05
  1.4565E-05
  1.4565E-05
  1.4565E-05
  1.4565E-05
  1.4565E-05
  1.4565E-05
  5.4393E-05
  5.4393E-05
  5.4393E-05
  5.4393E-05
  5.4393E-05
  5.4393E-05
  5.4393E-05
  5.4393E-05
  5.4393E-05
  2.0313E-04
  2.0313E-04
  2.0313E-04
  2.0313E-04
  2.0313E-04
  2.0313E-04
  2.0313E-04
  2.0313E-04
  2.0313E-04
  7.5861E-04
  7.5861E-04
  7.5861E-04
  7.5861E-04
  7.5861E-04
  7.5861E-04
  7.5861E-04
  7.5861E-04
  7.5861E-04
  2.8331E-03
  2.8331E-03
  2.8331E-03
  2.8331E-03
  2.8331E-03
  2.8331E-03
  2.8331E-03
  2.8331E-03
  2.8331E-03
  1.0580E-02
  1.0580E-02
  1.0580E-02
  1.0580E-02
  1.0580E-02
  1.0580E-02
  1.0580E-02
  1.0580E-02
  1.0580E-02
  3.9512E-02
  3.9512E-02
  3.9512E-02
  3.9512E-02
  3.9512E-02
  3.9512E-02
  3.9512E-02
  3.9512E-02
  3.9512E-02
  1.4756E-01
  1.4756E-01
  1.4756E-01
  1.4756E-01
  1.4756E-01
  1.4756E-01
  1.4756E-01
  1.4756E-01
  1.4756E-01
  5.5106E-01
  5.5106E-01
  5.5106E-01
  5.5106E-01
  5.5106E-01
  5.5106E-01
  5.5106E-01
  5.5106E-01
  5.5106E-01
  8.6934E-01
  8.6934E-01
  8.6934E-01
  8.6934E-01
  8.6934E-01
  8.6934E-01
  8.6934E-01
  8.6934E-01
  8.6934E-01
   2.2300E-02
  8.6055E-12
  8.6055E-12
  8.6055E-12
  8.6055E-12
  8.6055E-12
  8.6055E-12
  8.6055E-12
  8.6055E-12
  8.6055E-12
  2.5846E-11
  2.5846E-11
  2.5846E-11
  2.5846E-11
  2.5846E-11
  2.5846E-11
  2.5846E-11
  2.5846E-11
  2.5846E-11
  1.0346E-10
  1.0346E-10
  1.0346E-10
  1.0346E-10
  1.0346E-10
  1.0346E-10
  1.0346E-10
  1.0346E-10
  1.0346E-10
  3.8825E-10
  3.8825E-10
  3.8825E-10
  3.8825E-10
  3.8825E-10
  3.8825E-10
  3.8825E-10
  3.8825E-10
  3.8825E-10
  1.4504E-09
  1.4504E-09
  1.4504E-09
  1.4504E-09
  1.4504E-09
  1.4504E-09
  1.4504E-09
  1.4504E-09
  1.4504E-09
  5.4169E-09
  5.4169E-09
  5.4169E-09
  5.4169E-09
  5.4169E-09
  5.4169E-09
  5.4169E-09
  5.4169E-09
  5.4169E-09
  2.0230E-08
  2.0230E-08
  2.0230E-08
  2.0230E-08
  2.0230E-08
  2.0230E-08
  2.0230E-08
  2.0230E-08
  2.0230E-08
  7.5549E-08
  7.5549E-08
  7.5549E-08
  7.5549E-08
  7.5549E-08
  7.5549E-08
  7.5549E-08
  7.5549E-08
  7.5549E-08
  2.8214E-07
  2.8214E-07
  2.8214E-07
  2.8214E-07
  2.8214E-07
  2.8214E-07
  2.8214E-07
  2.8214E-07
  2.8214E-07
  1.0537E-06
  1.0537E-06
  1.0537E-06
  1.0537E-06
  1.0537E-06
  1.0537E-06
  1.0537E-06
  1.0537E-06
  1.0537E-06
  3.9350E-06
  3.9350E-06
  3.9350E-06
  3.9350E-06
  3.9350E-06
  3.9350E-06
  3.9350E-06
  3.9350E-06
  3.9350E-06
  1.4696E-05
  1.4696E-05
  1.4696E-05
  1.4696E-05
  1.4696E-05
  1.4696E-05
  1.4696E-05
  1.4696E-05
  1.4696E-05
  5.4882E-05
  5.4882E-05
  5.4882E-05
  5.4882E-05
  5.4882E-05
  5.4882E-05
  5.4882E-05
  5.4882E-05
  5.4882E-05
  2.0496E-04
  2.0496E-04
  2.0496E-04
  2.0496E-04
  2.0496E-04
  2.0496E-04
  2.0496E-04
  2.0496E-04
  2.0496E-04
  7.6543E-04
  7.6543E-04
  7.6543E-04
  7.6543E-04
  7.6543E-04
  7.6543E-04
  7.6543E-04
  7.6543E-04
  7.6543E-04
  2.8586E-03
  2.8586E-03
  2.8586E-03
  2.8586E-03
  2.8586E-03
  2.8586E-03
  2.8586E-03
  2.8586E-03
  2.8586E-03
  1.0675E-02
  1.0675E-02
  1.0675E-02
  1.0675E-02
  1.0675E-02
  1.0675E-02
  1.0675E-02
  1.0675E-02
  1.0675E-02
  3.9868E-02
  3.9868E-02
  3.9868E-02
  3.9868E-02
  3.9868E-02
  3.9868E-02
  3.9868E-02
  3.9868E-02
  3.9868E-02
  1.4889E-01
  1.4889E-01
  1.4889E-01
  1.4889E-01
  1.4889E-01
  1.4889E-01
  1.4889E-01
  1.4889E-01
  1.4889E-01
  5.5604E-01
  5.5604E-01
  5.5604E-01
  5.5604E-01
  5.5604E-01
  5.5604E-01
  5.5604E-01
  5.5604E-01
  5.5604E-01
  8.7719E-01
  8.7719E-01
  8.7719E-01
  8.7719E-01
  8.7719E-01
  8.7719E-01
  8.7719E-01
  8.7719E-01
  8.7719E-01
   2.2400E-02
  8.6818E-12
  8.6818E-12
  8.6818E-12
  8.6818E-12
  8.6818E-12
  8.6818E-12
  8.6818E-12
  8.6818E-12
  8.6818E-12
  2.6075E-11
  2.6075E-11
  2.6075E-11
  2.6075E-11
  2.6075E-11
  2.6075E-11
  2.6075E-11
  2.6075E-11
  2.6075E-11
  1.0438E-10
  1.0438E-10
  1.0438E-10
  1.0438E-10
  1.0438E-10
  1.0438E-10
  1.0438E-10
  1.0438E-10
  1.0438E-10
  3.9170E-10
  3.9170E-10
  3.9170E-10
  3.9170E-10
  3.9170E-10
  3.9170E-10
  3.9170E-10
  3.9170E-10
  3.9170E-10
  1.4633E-09
  1.4633E-09
  1.4633E-09
  1.4633E-09
  1.4633E-09
  1.4633E-09
  1.4633E-09
  1.4633E-09
  1.4633E-09
  5.4651E-09
  5.4651E-09
  5.4651E-09
  5.4651E-09
  5.4651E-09
  5.4651E-09
  5.4651E-09
  5.4651E-09
  5.4651E-09
  2.0410E-08
  2.0410E-08
  2.0410E-08
  2.0410E-08
  2.0410E-08
  2.0410E-08
  2.0410E-08
  2.0410E-08
  2.0410E-08
  7.6222E-08
  7.6222E-08
  7.6222E-08
  7.6222E-08
  7.6222E-08
  7.6222E-08
  7.6222E-08
  7.6222E-08
  7.6222E-08
  2.8466E-07
  2.8466E-07
  2.8466E-07
  2.8466E-07
  2.8466E-07
  2.8466E-07
  2.8466E-07
  2.8466E-07
  2.8466E-07
  1.0631E-06
  1.0631E-06
  1.0631E-06
  1.0631E-06
  1.0631E-06
  1.0631E-06
  1.0631E-06
  1.0631E-06
  1.0631E-06
  3.9702E-06
  3.9702E-06
  3.9702E-06
  3.9702E-06
  3.9702E-06
  3.9702E-06
  3.9702E-06
  3.9702E-06
  3.9702E-06
  1.4827E-05
  1.4827E-05
  1.4827E-05
  1.4827E-05
  1.4827E-05
  1.4827E-05
  1.4827E-05
  1.4827E-05
  1.4827E-05
  5.5372E-05
  5.5372E-05
  5.5372E-05
  5.5372E-05
  5.5372E-05
  5.5372E-05
  5.5372E-05
  5.5372E-05
  5.5372E-05
  2.0679E-04
  2.0679E-04
  2.0679E-04
  2.0679E-04
  2.0679E-04
  2.0679E-04
  2.0679E-04
  2.0679E-04
  2.0679E-04
  7.7229E-04
  7.7229E-04
  7.7229E-04
  7.7229E-04
  7.7229E-04
  7.7229E-04
  7.7229E-04
  7.7229E-04
  7.7229E-04
  2.8842E-03
  2.8842E-03
  2.8842E-03
  2.8842E-03
  2.8842E-03
  2.8842E-03
  2.8842E-03
  2.8842E-03
  2.8842E-03
  1.0771E-02
  1.0771E-02
  1.0771E-02
  1.0771E-02
  1.0771E-02
  1.0771E-02
  1.0771E-02
  1.0771E-02
  1.0771E-02
  4.0226E-02
  4.0226E-02
  4.0226E-02
  4.0226E-02
  4.0226E-02
  4.0226E-02
  4.0226E-02
  4.0226E-02
  4.0226E-02
  1.5023E-01
  1.5023E-01
  1.5023E-01
  1.5023E-01
  1.5023E-01
  1.5023E-01
  1.5023E-01
  1.5023E-01
  1.5023E-01
  5.6103E-01
  5.6103E-01
  5.6103E-01
  5.6103E-01
  5.6103E-01
  5.6103E-01
  5.6103E-01
  5.6103E-01
  5.6103E-01
  8.8507E-01
  8.8507E-01
  8.8507E-01
  8.8507E-01
  8.8507E-01
  8.8507E-01
  8.8507E-01
  8.8507E-01
  8.8507E-01
   2.2500E-02
  8.7584E-12
  8.7584E-12
  8.7584E-12
  8.7584E-12
  8.7584E-12
  8.7584E-12
  8.7584E-12
  8.7584E-12
  8.7584E-12
  2.6305E-11
  2.6305E-11
  2.6305E-11
  2.6305E-11
  2.6305E-11
  2.6305E-11
  2.6305E-11
  2.6305E-11
  2.6305E-11
  1.0530E-10
  1.0530E-10
  1.0530E-10
  1.0530E-10
  1.0530E-10
  1.0530E-10
  1.0530E-10
  1.0530E-10
  1.0530E-10
  3.9516E-10
  3.9516E-10
  3.9516E-10
  3.9516E-10
  3.9516E-10
  3.9516E-10
  3.9516E-10
  3.9516E-10
  3.9516E-10
  1.4763E-09
  1.4763E-09
  1.4763E-09
  1.4763E-09
  1.4763E-09
  1.4763E-09
  1.4763E-09
  1.4763E-09
  1.4763E-09
  5.5135E-09
  5.5135E-09
  5.5135E-09
  5.5135E-09
  5.5135E-09
  5.5135E-09
  5.5135E-09
  5.5135E-09
  5.5135E-09
  2.0591E-08
  2.0591E-08
  2.0591E-08
  2.0591E-08
  2.0591E-08
  2.0591E-08
  2.0591E-08
  2.0591E-08
  2.0591E-08
  7.6898E-08
  7.6898E-08
  7.6898E-08
  7.6898E-08
  7.6898E-08
  7.6898E-08
  7.6898E-08
  7.6898E-08
  7.6898E-08
  2.8718E-07
  2.8718E-07
  2.8718E-07
  2.8718E-07
  2.8718E-07
  2.8718E-07
  2.8718E-07
  2.8718E-07
  2.8718E-07
  1.0725E-06
  1.0725E-06
  1.0725E-06
  1.0725E-06
  1.0725E-06
  1.0725E-06
  1.0725E-06
  1.0725E-06
  1.0725E-06
  4.0055E-06
  4.0055E-06
  4.0055E-06
  4.0055E-06
  4.0055E-06
  4.0055E-06
  4.0055E-06
  4.0055E-06
  4.0055E-06
  1.4959E-05
  1.4959E-05
  1.4959E-05
  1.4959E-05
  1.4959E-05
  1.4959E-05
  1.4959E-05
  1.4959E-05
  1.4959E-05
  5.5865E-05
  5.5865E-05
  5.5865E-05
  5.5865E-05
  5.5865E-05
  5.5865E-05
  5.5865E-05
  5.5865E-05
  5.5865E-05
  2.0863E-04
  2.0863E-04
  2.0863E-04
  2.0863E-04
  2.0863E-04
  2.0863E-04
  2.0863E-04
  2.0863E-04
  2.0863E-04
  7.7917E-04
  7.7917E-04
  7.7917E-04
  7.7917E-04
  7.7917E-04
  7.7917E-04
  7.7917E-04
  7.7917E-04
  7.7917E-04
  2.9099E-03
  2.9099E-03
  2.9099E-03
  2.9099E-03
  2.9099E-03
  2.9099E-03
  2.9099E-03
  2.9099E-03
  2.9099E-03
  1.0867E-02
  1.0867E-02
  1.0867E-02
  1.0867E-02
  1.0867E-02
  1.0867E-02
  1.0867E-02
  1.0867E-02
  1.0867E-02
  4.0585E-02
  4.0585E-02
  4.0585E-02
  4.0585E-02
  4.0585E-02
  4.0585E-02
  4.0585E-02
  4.0585E-02
  4.0585E-02
  1.5157E-01
  1.5157E-01
  1.5157E-01
  1.5157E-01
  1.5157E-01
  1.5157E-01
  1.5157E-01
  1.5157E-01
  1.5157E-01
  5.6605E-01
  5.6605E-01
  5.6605E-01
  5.6605E-01
  5.6605E-01
  5.6605E-01
  5.6605E-01
  5.6605E-01
  5.6605E-01
  8.9299E-01
  8.9299E-01
  8.9299E-01
  8.9299E-01
  8.9299E-01
  8.9299E-01
  8.9299E-01
  8.9299E-01
  8.9299E-01
   2.2600E-02
  8.8353E-12
  8.8353E-12
  8.8353E-12
  8.8353E-12
  8.8353E-12
  8.8353E-12
  8.8353E-12
  8.8353E-12
  8.8353E-12
  2.6537E-11
  2.6537E-11
  2.6537E-11
  2.6537E-11
  2.6537E-11
  2.6537E-11
  2.6537E-11
  2.6537E-11
  2.6537E-11
  1.0623E-10
  1.0623E-10
  1.0623E-10
  1.0623E-10
  1.0623E-10
  1.0623E-10
  1.0623E-10
  1.0623E-10
  1.0623E-10
  3.9864E-10
  3.9864E-10
  3.9864E-10
  3.9864E-10
  3.9864E-10
  3.9864E-10
  3.9864E-10
  3.9864E-10
  3.9864E-10
  1.4893E-09
  1.4893E-09
  1.4893E-09
  1.4893E-09
  1.4893E-09
  1.4893E-09
  1.4893E-09
  1.4893E-09
  1.4893E-09
  5.5621E-09
  5.5621E-09
  5.5621E-09
  5.5621E-09
  5.5621E-09
  5.5621E-09
  5.5621E-09
  5.5621E-09
  5.5621E-09
  2.0772E-08
  2.0772E-08
  2.0772E-08
  2.0772E-08
  2.0772E-08
  2.0772E-08
  2.0772E-08
  2.0772E-08
  2.0772E-08
  7.7577E-08
  7.7577E-08
  7.7577E-08
  7.7577E-08
  7.7577E-08
  7.7577E-08
  7.7577E-08
  7.7577E-08
  7.7577E-08
  2.8972E-07
  2.8972E-07
  2.8972E-07
  2.8972E-07
  2.8972E-07
  2.8972E-07
  2.8972E-07
  2.8972E-07
  2.8972E-07
  1.0820E-06
  1.0820E-06
  1.0820E-06
  1.0820E-06
  1.0820E-06
  1.0820E-06
  1.0820E-06
  1.0820E-06
  1.0820E-06
  4.0409E-06
  4.0409E-06
  4.0409E-06
  4.0409E-06
  4.0409E-06
  4.0409E-06
  4.0409E-06
  4.0409E-06
  4.0409E-06
  1.5091E-05
  1.5091E-05
  1.5091E-05
  1.5091E-05
  1.5091E-05
  1.5091E-05
  1.5091E-05
  1.5091E-05
  1.5091E-05
  5.6360E-05
  5.6360E-05
  5.6360E-05
  5.6360E-05
  5.6360E-05
  5.6360E-05
  5.6360E-05
  5.6360E-05
  5.6360E-05
  2.1048E-04
  2.1048E-04
  2.1048E-04
  2.1048E-04
  2.1048E-04
  2.1048E-04
  2.1048E-04
  2.1048E-04
  2.1048E-04
  7.8608E-04
  7.8608E-04
  7.8608E-04
  7.8608E-04
  7.8608E-04
  7.8608E-04
  7.8608E-04
  7.8608E-04
  7.8608E-04
  2.9357E-03
  2.9357E-03
  2.9357E-03
  2.9357E-03
  2.9357E-03
  2.9357E-03
  2.9357E-03
  2.9357E-03
  2.9357E-03
  1.0964E-02
  1.0964E-02
  1.0964E-02
  1.0964E-02
  1.0964E-02
  1.0964E-02
  1.0964E-02
  1.0964E-02
  1.0964E-02
  4.0946E-02
  4.0946E-02
  4.0946E-02
  4.0946E-02
  4.0946E-02
  4.0946E-02
  4.0946E-02
  4.0946E-02
  4.0946E-02
  1.5292E-01
  1.5292E-01
  1.5292E-01
  1.5292E-01
  1.5292E-01
  1.5292E-01
  1.5292E-01
  1.5292E-01
  1.5292E-01
  5.7109E-01
  5.7109E-01
  5.7109E-01
  5.7109E-01
  5.7109E-01
  5.7109E-01
  5.7109E-01
  5.7109E-01
  5.7109E-01
  9.0094E-01
  9.0094E-01
  9.0094E-01
  9.0094E-01
  9.0094E-01
  9.0094E-01
  9.0094E-01
  9.0094E-01
  9.0094E-01
   2.2700E-02
  8.9125E-12
  8.9125E-12
  8.9125E-12
  8.9125E-12
  8.9125E-12
  8.9125E-12
  8.9125E-12
  8.9125E-12
  8.9125E-12
  2.6769E-11
  2.6769E-11
  2.6769E-11
  2.6769E-11
  2.6769E-11
  2.6769E-11
  2.6769E-11
  2.6769E-11
  2.6769E-11
  1.0716E-10
  1.0716E-10
  1.0716E-10
  1.0716E-10
  1.0716E-10
  1.0716E-10
  1.0716E-10
  1.0716E-10
  1.0716E-10
  4.0213E-10
  4.0213E-10
  4.0213E-10
  4.0213E-10
  4.0213E-10
  4.0213E-10
  4.0213E-10
  4.0213E-10
  4.0213E-10
  1.5023E-09
  1.5023E-09
  1.5023E-09
  1.5023E-09
  1.5023E-09
  1.5023E-09
  1.5023E-09
  1.5023E-09
  1.5023E-09
  5.6109E-09
  5.6109E-09
  5.6109E-09
  5.6109E-09
  5.6109E-09
  5.6109E-09
  5.6109E-09
  5.6109E-09
  5.6109E-09
  2.0955E-08
  2.0955E-08
  2.0955E-08
  2.0955E-08
  2.0955E-08
  2.0955E-08
  2.0955E-08
  2.0955E-08
  2.0955E-08
  7.8259E-08
  7.8259E-08
  7.8259E-08
  7.8259E-08
  7.8259E-08
  7.8259E-08
  7.8259E-08
  7.8259E-08
  7.8259E-08
  2.9227E-07
  2.9227E-07
  2.9227E-07
  2.9227E-07
  2.9227E-07
  2.9227E-07
  2.9227E-07
  2.9227E-07
  2.9227E-07
  1.0915E-06
  1.0915E-06
  1.0915E-06
  1.0915E-06
  1.0915E-06
  1.0915E-06
  1.0915E-06
  1.0915E-06
  1.0915E-06
  4.0765E-06
  4.0765E-06
  4.0765E-06
  4.0765E-06
  4.0765E-06
  4.0765E-06
  4.0765E-06
  4.0765E-06
  4.0765E-06
  1.5224E-05
  1.5224E-05
  1.5224E-05
  1.5224E-05
  1.5224E-05
  1.5224E-05
  1.5224E-05
  1.5224E-05
  1.5224E-05
  5.6857E-05
  5.6857E-05
  5.6857E-05
  5.6857E-05
  5.6857E-05
  5.6857E-05
  5.6857E-05
  5.6857E-05
  5.6857E-05
  2.1234E-04
  2.1234E-04
  2.1234E-04
  2.1234E-04
  2.1234E-04
  2.1234E-04
  2.1234E-04
  2.1234E-04
  2.1234E-04
  7.9303E-04
  7.9303E-04
  7.9303E-04
  7.9303E-04
  7.9303E-04
  7.9303E-04
  7.9303E-04
  7.9303E-04
  7.9303E-04
  2.9617E-03
  2.9617E-03
  2.9617E-03
  2.9617E-03
  2.9617E-03
  2.9617E-03
  2.9617E-03
  2.9617E-03
  2.9617E-03
  1.1061E-02
  1.1061E-02
  1.1061E-02
  1.1061E-02
  1.1061E-02
  1.1061E-02
  1.1061E-02
  1.1061E-02
  1.1061E-02
  4.1308E-02
  4.1308E-02
  4.1308E-02
  4.1308E-02
  4.1308E-02
  4.1308E-02
  4.1308E-02
  4.1308E-02
  4.1308E-02
  1.5427E-01
  1.5427E-01
  1.5427E-01
  1.5427E-01
  1.5427E-01
  1.5427E-01
  1.5427E-01
  1.5427E-01
  1.5427E-01
  5.7615E-01
  5.7615E-01
  5.7615E-01
  5.7615E-01
  5.7615E-01
  5.7615E-01
  5.7615E-01
  5.7615E-01
  5.7615E-01
  9.0892E-01
  9.0892E-01
  9.0892E-01
  9.0892E-01
  9.0892E-01
  9.0892E-01
  9.0892E-01
  9.0892E-01
  9.0892E-01
   2.2800E-02
  8.9901E-12
  8.9901E-12
  8.9901E-12
  8.9901E-12
  8.9901E-12
  8.9901E-12
  8.9901E-12
  8.9901E-12
  8.9901E-12
  2.7002E-11
  2.7002E-11
  2.7002E-11
  2.7002E-11
  2.7002E-11
  2.7002E-11
  2.7002E-11
  2.7002E-11
  2.7002E-11
  1.0809E-10
  1.0809E-10
  1.0809E-10
  1.0809E-10
  1.0809E-10
  1.0809E-10
  1.0809E-10
  1.0809E-10
  1.0809E-10
  4.0564E-10
  4.0564E-10
  4.0564E-10
  4.0564E-10
  4.0564E-10
  4.0564E-10
  4.0564E-10
  4.0564E-10
  4.0564E-10
  1.5155E-09
  1.5155E-09
  1.5155E-09
  1.5155E-09
  1.5155E-09
  1.5155E-09
  1.5155E-09
  1.5155E-09
  1.5155E-09
  5.6599E-09
  5.6599E-09
  5.6599E-09
  5.6599E-09
  5.6599E-09
  5.6599E-09
  5.6599E-09
  5.6599E-09
  5.6599E-09
  2.1138E-08
  2.1138E-08
  2.1138E-08
  2.1138E-08
  2.1138E-08
  2.1138E-08
  2.1138E-08
  2.1138E-08
  2.1138E-08
  7.8944E-08
  7.8944E-08
  7.8944E-08
  7.8944E-08
  7.8944E-08
  7.8944E-08
  7.8944E-08
  7.8944E-08
  7.8944E-08
  2.9483E-07
  2.9483E-07
  2.9483E-07
  2.9483E-07
  2.9483E-07
  2.9483E-07
  2.9483E-07
  2.9483E-07
  2.9483E-07
  1.1011E-06
  1.1011E-06
  1.1011E-06
  1.1011E-06
  1.1011E-06
  1.1011E-06
  1.1011E-06
  1.1011E-06
  1.1011E-06
  4.1122E-06
  4.1122E-06
  4.1122E-06
  4.1122E-06
  4.1122E-06
  4.1122E-06
  4.1122E-06
  4.1122E-06
  4.1122E-06
  1.5358E-05
  1.5358E-05
  1.5358E-05
  1.5358E-05
  1.5358E-05
  1.5358E-05
  1.5358E-05
  1.5358E-05
  1.5358E-05
  5.7357E-05
  5.7357E-05
  5.7357E-05
  5.7357E-05
  5.7357E-05
  5.7357E-05
  5.7357E-05
  5.7357E-05
  5.7357E-05
  2.1421E-04
  2.1421E-04
  2.1421E-04
  2.1421E-04
  2.1421E-04
  2.1421E-04
  2.1421E-04
  2.1421E-04
  2.1421E-04
  8.0000E-04
  8.0000E-04
  8.0000E-04
  8.0000E-04
  8.0000E-04
  8.0000E-04
  8.0000E-04
  8.0000E-04
  8.0000E-04
  2.9877E-03
  2.9877E-03
  2.9877E-03
  2.9877E-03
  2.9877E-03
  2.9877E-03
  2.9877E-03
  2.9877E-03
  2.9877E-03
  1.1158E-02
  1.1158E-02
  1.1158E-02
  1.1158E-02
  1.1158E-02
  1.1158E-02
  1.1158E-02
  1.1158E-02
  1.1158E-02
  4.1672E-02
  4.1672E-02
  4.1672E-02
  4.1672E-02
  4.1672E-02
  4.1672E-02
  4.1672E-02
  4.1672E-02
  4.1672E-02
  1.5563E-01
  1.5563E-01
  1.5563E-01
  1.5563E-01
  1.5563E-01
  1.5563E-01
  1.5563E-01
  1.5563E-01
  1.5563E-01
  5.8123E-01
  5.8123E-01
  5.8123E-01
  5.8123E-01
  5.8123E-01
  5.8123E-01
  5.8123E-01
  5.8123E-01
  5.8123E-01
  9.1695E-01
  9.1695E-01
  9.1695E-01
  9.1695E-01
  9.1695E-01
  9.1695E-01
  9.1695E-01
  9.1695E-01
  9.1695E-01
   2.2900E-02
  9.0679E-12
  9.0679E-12
  9.0679E-12
  9.0679E-12
  9.0679E-12
  9.0679E-12
  9.0679E-12
  9.0679E-12
  9.0679E-12
  2.7236E-11
  2.7236E-11
  2.7236E-11
  2.7236E-11
  2.7236E-11
  2.7236E-11
  2.7236E-11
  2.7236E-11
  2.7236E-11
  1.0903E-10
  1.0903E-10
  1.0903E-10
  1.0903E-10
  1.0903E-10
  1.0903E-10
  1.0903E-10
  1.0903E-10
  1.0903E-10
  4.0916E-10
  4.0916E-10
  4.0916E-10
  4.0916E-10
  4.0916E-10
  4.0916E-10
  4.0916E-10
  4.0916E-10
  4.0916E-10
  1.5286E-09
  1.5286E-09
  1.5286E-09
  1.5286E-09
  1.5286E-09
  1.5286E-09
  1.5286E-09
  1.5286E-09
  1.5286E-09
  5.7091E-09
  5.7091E-09
  5.7091E-09
  5.7091E-09
  5.7091E-09
  5.7091E-09
  5.7091E-09
  5.7091E-09
  5.7091E-09
  2.1322E-08
  2.1322E-08
  2.1322E-08
  2.1322E-08
  2.1322E-08
  2.1322E-08
  2.1322E-08
  2.1322E-08
  2.1322E-08
  7.9631E-08
  7.9631E-08
  7.9631E-08
  7.9631E-08
  7.9631E-08
  7.9631E-08
  7.9631E-08
  7.9631E-08
  7.9631E-08
  2.9740E-07
  2.9740E-07
  2.9740E-07
  2.9740E-07
  2.9740E-07
  2.9740E-07
  2.9740E-07
  2.9740E-07
  2.9740E-07
  1.1107E-06
  1.1107E-06
  1.1107E-06
  1.1107E-06
  1.1107E-06
  1.1107E-06
  1.1107E-06
  1.1107E-06
  1.1107E-06
  4.1481E-06
  4.1481E-06
  4.1481E-06
  4.1481E-06
  4.1481E-06
  4.1481E-06
  4.1481E-06
  4.1481E-06
  4.1481E-06
  1.5492E-05
  1.5492E-05
  1.5492E-05
  1.5492E-05
  1.5492E-05
  1.5492E-05
  1.5492E-05
  1.5492E-05
  1.5492E-05
  5.7858E-05
  5.7858E-05
  5.7858E-05
  5.7858E-05
  5.7858E-05
  5.7858E-05
  5.7858E-05
  5.7858E-05
  5.7858E-05
  2.1608E-04
  2.1608E-04
  2.1608E-04
  2.1608E-04
  2.1608E-04
  2.1608E-04
  2.1608E-04
  2.1608E-04
  2.1608E-04
  8.0700E-04
  8.0700E-04
  8.0700E-04
  8.0700E-04
  8.0700E-04
  8.0700E-04
  8.0700E-04
  8.0700E-04
  8.0700E-04
  3.0139E-03
  3.0139E-03
  3.0139E-03
  3.0139E-03
  3.0139E-03
  3.0139E-03
  3.0139E-03
  3.0139E-03
  3.0139E-03
  1.1256E-02
  1.1256E-02
  1.1256E-02
  1.1256E-02
  1.1256E-02
  1.1256E-02
  1.1256E-02
  1.1256E-02
  1.1256E-02
  4.2038E-02
  4.2038E-02
  4.2038E-02
  4.2038E-02
  4.2038E-02
  4.2038E-02
  4.2038E-02
  4.2038E-02
  4.2038E-02
  1.5700E-01
  1.5700E-01
  1.5700E-01
  1.5700E-01
  1.5700E-01
  1.5700E-01
  1.5700E-01
  1.5700E-01
  1.5700E-01
  5.8634E-01
  5.8634E-01
  5.8634E-01
  5.8634E-01
  5.8634E-01
  5.8634E-01
  5.8634E-01
  5.8634E-01
  5.8634E-01
  9.2500E-01
  9.2500E-01
  9.2500E-01
  9.2500E-01
  9.2500E-01
  9.2500E-01
  9.2500E-01
  9.2500E-01
  9.2500E-01
   2.3000E-02
  9.1461E-12
  9.1461E-12
  9.1461E-12
  9.1461E-12
  9.1461E-12
  9.1461E-12
  9.1461E-12
  9.1461E-12
  9.1461E-12
  2.7471E-11
  2.7471E-11
  2.7471E-11
  2.7471E-11
  2.7471E-11
  2.7471E-11
  2.7471E-11
  2.7471E-11
  2.7471E-11
  1.0998E-10
  1.0998E-10
  1.0998E-10
  1.0998E-10
  1.0998E-10
  1.0998E-10
  1.0998E-10
  1.0998E-10
  1.0998E-10
  4.1270E-10
  4.1270E-10
  4.1270E-10
  4.1270E-10
  4.1270E-10
  4.1270E-10
  4.1270E-10
  4.1270E-10
  4.1270E-10
  1.5419E-09
  1.5419E-09
  1.5419E-09
  1.5419E-09
  1.5419E-09
  1.5419E-09
  1.5419E-09
  1.5419E-09
  1.5419E-09
  5.7586E-09
  5.7586E-09
  5.7586E-09
  5.7586E-09
  5.7586E-09
  5.7586E-09
  5.7586E-09
  5.7586E-09
  5.7586E-09
  2.1507E-08
  2.1507E-08
  2.1507E-08
  2.1507E-08
  2.1507E-08
  2.1507E-08
  2.1507E-08
  2.1507E-08
  2.1507E-08
  8.0322E-08
  8.0322E-08
  8.0322E-08
  8.0322E-08
  8.0322E-08
  8.0322E-08
  8.0322E-08
  8.0322E-08
  8.0322E-08
  2.9998E-07
  2.9998E-07
  2.9998E-07
  2.9998E-07
  2.9998E-07
  2.9998E-07
  2.9998E-07
  2.9998E-07
  2.9998E-07
  1.1203E-06
  1.1203E-06
  1.1203E-06
  1.1203E-06
  1.1203E-06
  1.1203E-06
  1.1203E-06
  1.1203E-06
  1.1203E-06
  4.1842E-06
  4.1842E-06
  4.1842E-06
  4.1842E-06
  4.1842E-06
  4.1842E-06
  4.1842E-06
  4.1842E-06
  4.1842E-06
  1.5627E-05
  1.5627E-05
  1.5627E-05
  1.5627E-05
  1.5627E-05
  1.5627E-05
  1.5627E-05
  1.5627E-05
  1.5627E-05
  5.8362E-05
  5.8362E-05
  5.8362E-05
  5.8362E-05
  5.8362E-05
  5.8362E-05
  5.8362E-05
  5.8362E-05
  5.8362E-05
  2.1796E-04
  2.1796E-04
  2.1796E-04
  2.1796E-04
  2.1796E-04
  2.1796E-04
  2.1796E-04
  2.1796E-04
  2.1796E-04
  8.1404E-04
  8.1404E-04
  8.1404E-04
  8.1404E-04
  8.1404E-04
  8.1404E-04
  8.1404E-04
  8.1404E-04
  8.1404E-04
  3.0402E-03
  3.0402E-03
  3.0402E-03
  3.0402E-03
  3.0402E-03
  3.0402E-03
  3.0402E-03
  3.0402E-03
  3.0402E-03
  1.1354E-02
  1.1354E-02
  1.1354E-02
  1.1354E-02
  1.1354E-02
  1.1354E-02
  1.1354E-02
  1.1354E-02
  1.1354E-02
  4.2405E-02
  4.2405E-02
  4.2405E-02
  4.2405E-02
  4.2405E-02
  4.2405E-02
  4.2405E-02
  4.2405E-02
  4.2405E-02
  1.5837E-01
  1.5837E-01
  1.5837E-01
  1.5837E-01
  1.5837E-01
  1.5837E-01
  1.5837E-01
  1.5837E-01
  1.5837E-01
  5.9147E-01
  5.9147E-01
  5.9147E-01
  5.9147E-01
  5.9147E-01
  5.9147E-01
  5.9147E-01
  5.9147E-01
  5.9147E-01
  9.3310E-01
  9.3310E-01
  9.3310E-01
  9.3310E-01
  9.3310E-01
  9.3310E-01
  9.3310E-01
  9.3310E-01
  9.3310E-01
   2.3100E-02
  9.2246E-12
  9.2246E-12
  9.2246E-12
  9.2246E-12
  9.2246E-12
  9.2246E-12
  9.2246E-12
  9.2246E-12
  9.2246E-12
  2.7707E-11
  2.7707E-11
  2.7707E-11
  2.7707E-11
  2.7707E-11
  2.7707E-11
  2.7707E-11
  2.7707E-11
  2.7707E-11
  1.1092E-10
  1.1092E-10
  1.1092E-10
  1.1092E-10
  1.1092E-10
  1.1092E-10
  1.1092E-10
  1.1092E-10
  1.1092E-10
  4.1626E-10
  4.1626E-10
  4.1626E-10
  4.1626E-10
  4.1626E-10
  4.1626E-10
  4.1626E-10
  4.1626E-10
  4.1626E-10
  1.5551E-09
  1.5551E-09
  1.5551E-09
  1.5551E-09
  1.5551E-09
  1.5551E-09
  1.5551E-09
  1.5551E-09
  1.5551E-09
  5.8082E-09
  5.8082E-09
  5.8082E-09
  5.8082E-09
  5.8082E-09
  5.8082E-09
  5.8082E-09
  5.8082E-09
  5.8082E-09
  2.1692E-08
  2.1692E-08
  2.1692E-08
  2.1692E-08
  2.1692E-08
  2.1692E-08
  2.1692E-08
  2.1692E-08
  2.1692E-08
  8.1016E-08
  8.1016E-08
  8.1016E-08
  8.1016E-08
  8.1016E-08
  8.1016E-08
  8.1016E-08
  8.1016E-08
  8.1016E-08
  3.0257E-07
  3.0257E-07
  3.0257E-07
  3.0257E-07
  3.0257E-07
  3.0257E-07
  3.0257E-07
  3.0257E-07
  3.0257E-07
  1.1300E-06
  1.1300E-06
  1.1300E-06
  1.1300E-06
  1.1300E-06
  1.1300E-06
  1.1300E-06
  1.1300E-06
  1.1300E-06
  4.2204E-06
  4.2204E-06
  4.2204E-06
  4.2204E-06
  4.2204E-06
  4.2204E-06
  4.2204E-06
  4.2204E-06
  4.2204E-06
  1.5762E-05
  1.5762E-05
  1.5762E-05
  1.5762E-05
  1.5762E-05
  1.5762E-05
  1.5762E-05
  1.5762E-05
  1.5762E-05
  5.8867E-05
  5.8867E-05
  5.8867E-05
  5.8867E-05
  5.8867E-05
  5.8867E-05
  5.8867E-05
  5.8867E-05
  5.8867E-05
  2.1985E-04
  2.1985E-04
  2.1985E-04
  2.1985E-04
  2.1985E-04
  2.1985E-04
  2.1985E-04
  2.1985E-04
  2.1985E-04
  8.2110E-04
  8.2110E-04
  8.2110E-04
  8.2110E-04
  8.2110E-04
  8.2110E-04
  8.2110E-04
  8.2110E-04
  8.2110E-04
  3.0666E-03
  3.0666E-03
  3.0666E-03
  3.0666E-03
  3.0666E-03
  3.0666E-03
  3.0666E-03
  3.0666E-03
  3.0666E-03
  1.1453E-02
  1.1453E-02
  1.1453E-02
  1.1453E-02
  1.1453E-02
  1.1453E-02
  1.1453E-02
  1.1453E-02
  1.1453E-02
  4.2774E-02
  4.2774E-02
  4.2774E-02
  4.2774E-02
  4.2774E-02
  4.2774E-02
  4.2774E-02
  4.2774E-02
  4.2774E-02
  1.5975E-01
  1.5975E-01
  1.5975E-01
  1.5975E-01
  1.5975E-01
  1.5975E-01
  1.5975E-01
  1.5975E-01
  1.5975E-01
  5.9662E-01
  5.9662E-01
  5.9662E-01
  5.9662E-01
  5.9662E-01
  5.9662E-01
  5.9662E-01
  5.9662E-01
  5.9662E-01
  9.4122E-01
  9.4122E-01
  9.4122E-01
  9.4122E-01
  9.4122E-01
  9.4122E-01
  9.4122E-01
  9.4122E-01
  9.4122E-01
   2.3200E-02
  9.3035E-12
  9.3035E-12
  9.3035E-12
  9.3035E-12
  9.3035E-12
  9.3035E-12
  9.3035E-12
  9.3035E-12
  9.3035E-12
  2.7944E-11
  2.7944E-11
  2.7944E-11
  2.7944E-11
  2.7944E-11
  2.7944E-11
  2.7944E-11
  2.7944E-11
  2.7944E-11
  1.1187E-10
  1.1187E-10
  1.1187E-10
  1.1187E-10
  1.1187E-10
  1.1187E-10
  1.1187E-10
  1.1187E-10
  1.1187E-10
  4.1982E-10
  4.1982E-10
  4.1982E-10
  4.1982E-10
  4.1982E-10
  4.1982E-10
  4.1982E-10
  4.1982E-10
  4.1982E-10
  1.5685E-09
  1.5685E-09
  1.5685E-09
  1.5685E-09
  1.5685E-09
  1.5685E-09
  1.5685E-09
  1.5685E-09
  1.5685E-09
  5.8581E-09
  5.8581E-09
  5.8581E-09
  5.8581E-09
  5.8581E-09
  5.8581E-09
  5.8581E-09
  5.8581E-09
  5.8581E-09
  2.1879E-08
  2.1879E-08
  2.1879E-08
  2.1879E-08
  2.1879E-08
  2.1879E-08
  2.1879E-08
  2.1879E-08
  2.1879E-08
  8.1712E-08
  8.1712E-08
  8.1712E-08
  8.1712E-08
  8.1712E-08
  8.1712E-08
  8.1712E-08
  8.1712E-08
  8.1712E-08
  3.0518E-07
  3.0518E-07
  3.0518E-07
  3.0518E-07
  3.0518E-07
  3.0518E-07
  3.0518E-07
  3.0518E-07
  3.0518E-07
  1.1398E-06
  1.1398E-06
  1.1398E-06
  1.1398E-06
  1.1398E-06
  1.1398E-06
  1.1398E-06
  1.1398E-06
  1.1398E-06
  4.2567E-06
  4.2567E-06
  4.2567E-06
  4.2567E-06
  4.2567E-06
  4.2567E-06
  4.2567E-06
  4.2567E-06
  4.2567E-06
  1.5898E-05
  1.5898E-05
  1.5898E-05
  1.5898E-05
  1.5898E-05
  1.5898E-05
  1.5898E-05
  1.5898E-05
  1.5898E-05
  5.9375E-05
  5.9375E-05
  5.9375E-05
  5.9375E-05
  5.9375E-05
  5.9375E-05
  5.9375E-05
  5.9375E-05
  5.9375E-05
  2.2175E-04
  2.2175E-04
  2.2175E-04
  2.2175E-04
  2.2175E-04
  2.2175E-04
  2.2175E-04
  2.2175E-04
  2.2175E-04
  8.2820E-04
  8.2820E-04
  8.2820E-04
  8.2820E-04
  8.2820E-04
  8.2820E-04
  8.2820E-04
  8.2820E-04
  8.2820E-04
  3.0931E-03
  3.0931E-03
  3.0931E-03
  3.0931E-03
  3.0931E-03
  3.0931E-03
  3.0931E-03
  3.0931E-03
  3.0931E-03
  1.1552E-02
  1.1552E-02
  1.1552E-02
  1.1552E-02
  1.1552E-02
  1.1552E-02
  1.1552E-02
  1.1552E-02
  1.1552E-02
  4.3144E-02
  4.3144E-02
  4.3144E-02
  4.3144E-02
  4.3144E-02
  4.3144E-02
  4.3144E-02
  4.3144E-02
  4.3144E-02
  1.6113E-01
  1.6113E-01
  1.6113E-01
  1.6113E-01
  1.6113E-01
  1.6113E-01
  1.6113E-01
  1.6113E-01
  1.6113E-01
  6.0180E-01
  6.0180E-01
  6.0180E-01
  6.0180E-01
  6.0180E-01
  6.0180E-01
  6.0180E-01
  6.0180E-01
  6.0180E-01
  9.4939E-01
  9.4939E-01
  9.4939E-01
  9.4939E-01
  9.4939E-01
  9.4939E-01
  9.4939E-01
  9.4939E-01
  9.4939E-01
   2.3300E-02
  9.3826E-12
  9.3826E-12
  9.3826E-12
  9.3826E-12
  9.3826E-12
  9.3826E-12
  9.3826E-12
  9.3826E-12
  9.3826E-12
  2.8183E-11
  2.8183E-11
  2.8183E-11
  2.8183E-11
  2.8183E-11
  2.8183E-11
  2.8183E-11
  2.8183E-11
  2.8183E-11
  1.1282E-10
  1.1282E-10
  1.1282E-10
  1.1282E-10
  1.1282E-10
  1.1282E-10
  1.1282E-10
  1.1282E-10
  1.1282E-10
  4.2340E-10
  4.2340E-10
  4.2340E-10
  4.2340E-10
  4.2340E-10
  4.2340E-10
  4.2340E-10
  4.2340E-10
  4.2340E-10
  1.5819E-09
  1.5819E-09
  1.5819E-09
  1.5819E-09
  1.5819E-09
  1.5819E-09
  1.5819E-09
  1.5819E-09
  1.5819E-09
  5.9081E-09
  5.9081E-09
  5.9081E-09
  5.9081E-09
  5.9081E-09
  5.9081E-09
  5.9081E-09
  5.9081E-09
  5.9081E-09
  2.2066E-08
  2.2066E-08
  2.2066E-08
  2.2066E-08
  2.2066E-08
  2.2066E-08
  2.2066E-08
  2.2066E-08
  2.2066E-08
  8.2411E-08
  8.2411E-08
  8.2411E-08
  8.2411E-08
  8.2411E-08
  8.2411E-08
  8.2411E-08
  8.2411E-08
  8.2411E-08
  3.0779E-07
  3.0779E-07
  3.0779E-07
  3.0779E-07
  3.0779E-07
  3.0779E-07
  3.0779E-07
  3.0779E-07
  3.0779E-07
  1.1495E-06
  1.1495E-06
  1.1495E-06
  1.1495E-06
  1.1495E-06
  1.1495E-06
  1.1495E-06
  1.1495E-06
  1.1495E-06
  4.2933E-06
  4.2933E-06
  4.2933E-06
  4.2933E-06
  4.2933E-06
  4.2933E-06
  4.2933E-06
  4.2933E-06
  4.2933E-06
  1.6034E-05
  1.6034E-05
  1.6034E-05
  1.6034E-05
  1.6034E-05
  1.6034E-05
  1.6034E-05
  1.6034E-05
  1.6034E-05
  5.9885E-05
  5.9885E-05
  5.9885E-05
  5.9885E-05
  5.9885E-05
  5.9885E-05
  5.9885E-05
  5.9885E-05
  5.9885E-05
  2.2366E-04
  2.2366E-04
  2.2366E-04
  2.2366E-04
  2.2366E-04
  2.2366E-04
  2.2366E-04
  2.2366E-04
  2.2366E-04
  8.3532E-04
  8.3532E-04
  8.3532E-04
  8.3532E-04
  8.3532E-04
  8.3532E-04
  8.3532E-04
  8.3532E-04
  8.3532E-04
  3.1197E-03
  3.1197E-03
  3.1197E-03
  3.1197E-03
  3.1197E-03
  3.1197E-03
  3.1197E-03
  3.1197E-03
  3.1197E-03
  1.1652E-02
  1.1652E-02
  1.1652E-02
  1.1652E-02
  1.1652E-02
  1.1652E-02
  1.1652E-02
  1.1652E-02
  1.1652E-02
  4.3516E-02
  4.3516E-02
  4.3516E-02
  4.3516E-02
  4.3516E-02
  4.3516E-02
  4.3516E-02
  4.3516E-02
  4.3516E-02
  1.6252E-01
  1.6252E-01
  1.6252E-01
  1.6252E-01
  1.6252E-01
  1.6252E-01
  1.6252E-01
  1.6252E-01
  1.6252E-01
  6.0699E-01
  6.0699E-01
  6.0699E-01
  6.0699E-01
  6.0699E-01
  6.0699E-01
  6.0699E-01
  6.0699E-01
  6.0699E-01
  9.5759E-01
  9.5759E-01
  9.5759E-01
  9.5759E-01
  9.5759E-01
  9.5759E-01
  9.5759E-01
  9.5759E-01
  9.5759E-01
   2.3400E-02
  9.4621E-12
  9.4621E-12
  9.4621E-12
  9.4621E-12
  9.4621E-12
  9.4621E-12
  9.4621E-12
  9.4621E-12
  9.4621E-12
  2.8422E-11
  2.8422E-11
  2.8422E-11
  2.8422E-11
  2.8422E-11
  2.8422E-11
  2.8422E-11
  2.8422E-11
  2.8422E-11
  1.1378E-10
  1.1378E-10
  1.1378E-10
  1.1378E-10
  1.1378E-10
  1.1378E-10
  1.1378E-10
  1.1378E-10
  1.1378E-10
  4.2700E-10
  4.2700E-10
  4.2700E-10
  4.2700E-10
  4.2700E-10
  4.2700E-10
  4.2700E-10
  4.2700E-10
  4.2700E-10
  1.5953E-09
  1.5953E-09
  1.5953E-09
  1.5953E-09
  1.5953E-09
  1.5953E-09
  1.5953E-09
  1.5953E-09
  1.5953E-09
  5.9584E-09
  5.9584E-09
  5.9584E-09
  5.9584E-09
  5.9584E-09
  5.9584E-09
  5.9584E-09
  5.9584E-09
  5.9584E-09
  2.2254E-08
  2.2254E-08
  2.2254E-08
  2.2254E-08
  2.2254E-08
  2.2254E-08
  2.2254E-08
  2.2254E-08
  2.2254E-08
  8.3113E-08
  8.3113E-08
  8.3113E-08
  8.3113E-08
  8.3113E-08
  8.3113E-08
  8.3113E-08
  8.3113E-08
  8.3113E-08
  3.1041E-07
  3.1041E-07
  3.1041E-07
  3.1041E-07
  3.1041E-07
  3.1041E-07
  3.1041E-07
  3.1041E-07
  3.1041E-07
  1.1593E-06
  1.1593E-06
  1.1593E-06
  1.1593E-06
  1.1593E-06
  1.1593E-06
  1.1593E-06
  1.1593E-06
  1.1593E-06
  4.3299E-06
  4.3299E-06
  4.3299E-06
  4.3299E-06
  4.3299E-06
  4.3299E-06
  4.3299E-06
  4.3299E-06
  4.3299E-06
  1.6171E-05
  1.6171E-05
  1.6171E-05
  1.6171E-05
  1.6171E-05
  1.6171E-05
  1.6171E-05
  1.6171E-05
  1.6171E-05
  6.0397E-05
  6.0397E-05
  6.0397E-05
  6.0397E-05
  6.0397E-05
  6.0397E-05
  6.0397E-05
  6.0397E-05
  6.0397E-05
  2.2557E-04
  2.2557E-04
  2.2557E-04
  2.2557E-04
  2.2557E-04
  2.2557E-04
  2.2557E-04
  2.2557E-04
  2.2557E-04
  8.4247E-04
  8.4247E-04
  8.4247E-04
  8.4247E-04
  8.4247E-04
  8.4247E-04
  8.4247E-04
  8.4247E-04
  8.4247E-04
  3.1465E-03
  3.1465E-03
  3.1465E-03
  3.1465E-03
  3.1465E-03
  3.1465E-03
  3.1465E-03
  3.1465E-03
  3.1465E-03
  1.1752E-02
  1.1752E-02
  1.1752E-02
  1.1752E-02
  1.1752E-02
  1.1752E-02
  1.1752E-02
  1.1752E-02
  1.1752E-02
  4.3890E-02
  4.3890E-02
  4.3890E-02
  4.3890E-02
  4.3890E-02
  4.3890E-02
  4.3890E-02
  4.3890E-02
  4.3890E-02
  1.6392E-01
  1.6392E-01
  1.6392E-01
  1.6392E-01
  1.6392E-01
  1.6392E-01
  1.6392E-01
  1.6392E-01
  1.6392E-01
  6.1221E-01
  6.1221E-01
  6.1221E-01
  6.1221E-01
  6.1221E-01
  6.1221E-01
  6.1221E-01
  6.1221E-01
  6.1221E-01
  9.6582E-01
  9.6582E-01
  9.6582E-01
  9.6582E-01
  9.6582E-01
  9.6582E-01
  9.6582E-01
  9.6582E-01
  9.6582E-01
   2.3500E-02
  9.5419E-12
  9.5419E-12
  9.5419E-12
  9.5419E-12
  9.5419E-12
  9.5419E-12
  9.5419E-12
  9.5419E-12
  9.5419E-12
  2.8661E-11
  2.8661E-11
  2.8661E-11
  2.8661E-11
  2.8661E-11
  2.8661E-11
  2.8661E-11
  2.8661E-11
  2.8661E-11
  1.1474E-10
  1.1474E-10
  1.1474E-10
  1.1474E-10
  1.1474E-10
  1.1474E-10
  1.1474E-10
  1.1474E-10
  1.1474E-10
  4.3061E-10
  4.3061E-10
  4.3061E-10
  4.3061E-10
  4.3061E-10
  4.3061E-10
  4.3061E-10
  4.3061E-10
  4.3061E-10
  1.6088E-09
  1.6088E-09
  1.6088E-09
  1.6088E-09
  1.6088E-09
  1.6088E-09
  1.6088E-09
  1.6088E-09
  1.6088E-09
  6.0089E-09
  6.0089E-09
  6.0089E-09
  6.0089E-09
  6.0089E-09
  6.0089E-09
  6.0089E-09
  6.0089E-09
  6.0089E-09
  2.2442E-08
  2.2442E-08
  2.2442E-08
  2.2442E-08
  2.2442E-08
  2.2442E-08
  2.2442E-08
  2.2442E-08
  2.2442E-08
  8.3818E-08
  8.3818E-08
  8.3818E-08
  8.3818E-08
  8.3818E-08
  8.3818E-08
  8.3818E-08
  8.3818E-08
  8.3818E-08
  3.1305E-07
  3.1305E-07
  3.1305E-07
  3.1305E-07
  3.1305E-07
  3.1305E-07
  3.1305E-07
  3.1305E-07
  3.1305E-07
  1.1692E-06
  1.1692E-06
  1.1692E-06
  1.1692E-06
  1.1692E-06
  1.1692E-06
  1.1692E-06
  1.1692E-06
  1.1692E-06
  4.3667E-06
  4.3667E-06
  4.3667E-06
  4.3667E-06
  4.3667E-06
  4.3667E-06
  4.3667E-06
  4.3667E-06
  4.3667E-06
  1.6309E-05
  1.6309E-05
  1.6309E-05
  1.6309E-05
  1.6309E-05
  1.6309E-05
  1.6309E-05
  1.6309E-05
  1.6309E-05
  6.0912E-05
  6.0912E-05
  6.0912E-05
  6.0912E-05
  6.0912E-05
  6.0912E-05
  6.0912E-05
  6.0912E-05
  6.0912E-05
  2.2750E-04
  2.2750E-04
  2.2750E-04
  2.2750E-04
  2.2750E-04
  2.2750E-04
  2.2750E-04
  2.2750E-04
  2.2750E-04
  8.4966E-04
  8.4966E-04
  8.4966E-04
  8.4966E-04
  8.4966E-04
  8.4966E-04
  8.4966E-04
  8.4966E-04
  8.4966E-04
  3.1733E-03
  3.1733E-03
  3.1733E-03
  3.1733E-03
  3.1733E-03
  3.1733E-03
  3.1733E-03
  3.1733E-03
  3.1733E-03
  1.1852E-02
  1.1852E-02
  1.1852E-02
  1.1852E-02
  1.1852E-02
  1.1852E-02
  1.1852E-02
  1.1852E-02
  1.1852E-02
  4.4265E-02
  4.4265E-02
  4.4265E-02
  4.4265E-02
  4.4265E-02
  4.4265E-02
  4.4265E-02
  4.4265E-02
  4.4265E-02
  1.6532E-01
  1.6532E-01
  1.6532E-01
  1.6532E-01
  1.6532E-01
  1.6532E-01
  1.6532E-01
  1.6532E-01
  1.6532E-01
  6.1745E-01
  6.1745E-01
  6.1745E-01
  6.1745E-01
  6.1745E-01
  6.1745E-01
  6.1745E-01
  6.1745E-01
  6.1745E-01
  9.7409E-01
  9.7409E-01
  9.7409E-01
  9.7409E-01
  9.7409E-01
  9.7409E-01
  9.7409E-01
  9.7409E-01
  9.7409E-01
   2.3600E-02
  9.6220E-12
  9.6220E-12
  9.6220E-12
  9.6220E-12
  9.6220E-12
  9.6220E-12
  9.6220E-12
  9.6220E-12
  9.6220E-12
  2.8902E-11
  2.8902E-11
  2.8902E-11
  2.8902E-11
  2.8902E-11
  2.8902E-11
  2.8902E-11
  2.8902E-11
  2.8902E-11
  1.1571E-10
  1.1571E-10
  1.1571E-10
  1.1571E-10
  1.1571E-10
  1.1571E-10
  1.1571E-10
  1.1571E-10
  1.1571E-10
  4.3424E-10
  4.3424E-10
  4.3424E-10
  4.3424E-10
  4.3424E-10
  4.3424E-10
  4.3424E-10
  4.3424E-10
  4.3424E-10
  1.6224E-09
  1.6224E-09
  1.6224E-09
  1.6224E-09
  1.6224E-09
  1.6224E-09
  1.6224E-09
  1.6224E-09
  1.6224E-09
  6.0595E-09
  6.0595E-09
  6.0595E-09
  6.0595E-09
  6.0595E-09
  6.0595E-09
  6.0595E-09
  6.0595E-09
  6.0595E-09
  2.2632E-08
  2.2632E-08
  2.2632E-08
  2.2632E-08
  2.2632E-08
  2.2632E-08
  2.2632E-08
  2.2632E-08
  2.2632E-08
  8.4526E-08
  8.4526E-08
  8.4526E-08
  8.4526E-08
  8.4526E-08
  8.4526E-08
  8.4526E-08
  8.4526E-08
  8.4526E-08
  3.1569E-07
  3.1569E-07
  3.1569E-07
  3.1569E-07
  3.1569E-07
  3.1569E-07
  3.1569E-07
  3.1569E-07
  3.1569E-07
  1.1791E-06
  1.1791E-06
  1.1791E-06
  1.1791E-06
  1.1791E-06
  1.1791E-06
  1.1791E-06
  1.1791E-06
  1.1791E-06
  4.4037E-06
  4.4037E-06
  4.4037E-06
  4.4037E-06
  4.4037E-06
  4.4037E-06
  4.4037E-06
  4.4037E-06
  4.4037E-06
  1.6447E-05
  1.6447E-05
  1.6447E-05
  1.6447E-05
  1.6447E-05
  1.6447E-05
  1.6447E-05
  1.6447E-05
  1.6447E-05
  6.1428E-05
  6.1428E-05
  6.1428E-05
  6.1428E-05
  6.1428E-05
  6.1428E-05
  6.1428E-05
  6.1428E-05
  6.1428E-05
  2.2943E-04
  2.2943E-04
  2.2943E-04
  2.2943E-04
  2.2943E-04
  2.2943E-04
  2.2943E-04
  2.2943E-04
  2.2943E-04
  8.5687E-04
  8.5687E-04
  8.5687E-04
  8.5687E-04
  8.5687E-04
  8.5687E-04
  8.5687E-04
  8.5687E-04
  8.5687E-04
  3.2003E-03
  3.2003E-03
  3.2003E-03
  3.2003E-03
  3.2003E-03
  3.2003E-03
  3.2003E-03
  3.2003E-03
  3.2003E-03
  1.1953E-02
  1.1953E-02
  1.1953E-02
  1.1953E-02
  1.1953E-02
  1.1953E-02
  1.1953E-02
  1.1953E-02
  1.1953E-02
  4.4642E-02
  4.4642E-02
  4.4642E-02
  4.4642E-02
  4.4642E-02
  4.4642E-02
  4.4642E-02
  4.4642E-02
  4.4642E-02
  1.6673E-01
  1.6673E-01
  1.6673E-01
  1.6673E-01
  1.6673E-01
  1.6673E-01
  1.6673E-01
  1.6673E-01
  1.6673E-01
  6.2271E-01
  6.2271E-01
  6.2271E-01
  6.2271E-01
  6.2271E-01
  6.2271E-01
  6.2271E-01
  6.2271E-01
  6.2271E-01
  9.8239E-01
  9.8239E-01
  9.8239E-01
  9.8239E-01
  9.8239E-01
  9.8239E-01
  9.8239E-01
  9.8239E-01
  9.8239E-01
   2.3700E-02
  9.7024E-12
  9.7024E-12
  9.7024E-12
  9.7024E-12
  9.7024E-12
  9.7024E-12
  9.7024E-12
  9.7024E-12
  9.7024E-12
  2.9144E-11
  2.9144E-11
  2.9144E-11
  2.9144E-11
  2.9144E-11
  2.9144E-11
  2.9144E-11
  2.9144E-11
  2.9144E-11
  1.1668E-10
  1.1668E-10
  1.1668E-10
  1.1668E-10
  1.1668E-10
  1.1668E-10
  1.1668E-10
  1.1668E-10
  1.1668E-10
  4.3788E-10
  4.3788E-10
  4.3788E-10
  4.3788E-10
  4.3788E-10
  4.3788E-10
  4.3788E-10
  4.3788E-10
  4.3788E-10
  1.6360E-09
  1.6360E-09
  1.6360E-09
  1.6360E-09
  1.6360E-09
  1.6360E-09
  1.6360E-09
  1.6360E-09
  1.6360E-09
  6.1104E-09
  6.1104E-09
  6.1104E-09
  6.1104E-09
  6.1104E-09
  6.1104E-09
  6.1104E-09
  6.1104E-09
  6.1104E-09
  2.2822E-08
  2.2822E-08
  2.2822E-08
  2.2822E-08
  2.2822E-08
  2.2822E-08
  2.2822E-08
  2.2822E-08
  2.2822E-08
  8.5237E-08
  8.5237E-08
  8.5237E-08
  8.5237E-08
  8.5237E-08
  8.5237E-08
  8.5237E-08
  8.5237E-08
  8.5237E-08
  3.1835E-07
  3.1835E-07
  3.1835E-07
  3.1835E-07
  3.1835E-07
  3.1835E-07
  3.1835E-07
  3.1835E-07
  3.1835E-07
  1.1890E-06
  1.1890E-06
  1.1890E-06
  1.1890E-06
  1.1890E-06
  1.1890E-06
  1.1890E-06
  1.1890E-06
  1.1890E-06
  4.4408E-06
  4.4408E-06
  4.4408E-06
  4.4408E-06
  4.4408E-06
  4.4408E-06
  4.4408E-06
  4.4408E-06
  4.4408E-06
  1.6586E-05
  1.6586E-05
  1.6586E-05
  1.6586E-05
  1.6586E-05
  1.6586E-05
  1.6586E-05
  1.6586E-05
  1.6586E-05
  6.1947E-05
  6.1947E-05
  6.1947E-05
  6.1947E-05
  6.1947E-05
  6.1947E-05
  6.1947E-05
  6.1947E-05
  6.1947E-05
  2.3136E-04
  2.3136E-04
  2.3136E-04
  2.3136E-04
  2.3136E-04
  2.3136E-04
  2.3136E-04
  2.3136E-04
  2.3136E-04
  8.6412E-04
  8.6412E-04
  8.6412E-04
  8.6412E-04
  8.6412E-04
  8.6412E-04
  8.6412E-04
  8.6412E-04
  8.6412E-04
  3.2274E-03
  3.2274E-03
  3.2274E-03
  3.2274E-03
  3.2274E-03
  3.2274E-03
  3.2274E-03
  3.2274E-03
  3.2274E-03
  1.2054E-02
  1.2054E-02
  1.2054E-02
  1.2054E-02
  1.2054E-02
  1.2054E-02
  1.2054E-02
  1.2054E-02
  1.2054E-02
  4.5020E-02
  4.5020E-02
  4.5020E-02
  4.5020E-02
  4.5020E-02
  4.5020E-02
  4.5020E-02
  4.5020E-02
  4.5020E-02
  1.6814E-01
  1.6814E-01
  1.6814E-01
  1.6814E-01
  1.6814E-01
  1.6814E-01
  1.6814E-01
  1.6814E-01
  1.6814E-01
  6.2800E-01
  6.2800E-01
  6.2800E-01
  6.2800E-01
  6.2800E-01
  6.2800E-01
  6.2800E-01
  6.2800E-01
  6.2800E-01
  9.9073E-01
  9.9073E-01
  9.9073E-01
  9.9073E-01
  9.9073E-01
  9.9073E-01
  9.9073E-01
  9.9073E-01
  9.9073E-01
   2.3800E-02
  9.7832E-12
  9.7832E-12
  9.7832E-12
  9.7832E-12
  9.7832E-12
  9.7832E-12
  9.7832E-12
  9.7832E-12
  9.7832E-12
  2.9387E-11
  2.9387E-11
  2.9387E-11
  2.9387E-11
  2.9387E-11
  2.9387E-11
  2.9387E-11
  2.9387E-11
  2.9387E-11
  1.1765E-10
  1.1765E-10
  1.1765E-10
  1.1765E-10
  1.1765E-10
  1.1765E-10
  1.1765E-10
  1.1765E-10
  1.1765E-10
  4.4153E-10
  4.4153E-10
  4.4153E-10
  4.4153E-10
  4.4153E-10
  4.4153E-10
  4.4153E-10
  4.4153E-10
  4.4153E-10
  1.6497E-09
  1.6497E-09
  1.6497E-09
  1.6497E-09
  1.6497E-09
  1.6497E-09
  1.6497E-09
  1.6497E-09
  1.6497E-09
  6.1615E-09
  6.1615E-09
  6.1615E-09
  6.1615E-09
  6.1615E-09
  6.1615E-09
  6.1615E-09
  6.1615E-09
  6.1615E-09
  2.3013E-08
  2.3013E-08
  2.3013E-08
  2.3013E-08
  2.3013E-08
  2.3013E-08
  2.3013E-08
  2.3013E-08
  2.3013E-08
  8.5951E-08
  8.5951E-08
  8.5951E-08
  8.5951E-08
  8.5951E-08
  8.5951E-08
  8.5951E-08
  8.5951E-08
  8.5951E-08
  3.2102E-07
  3.2102E-07
  3.2102E-07
  3.2102E-07
  3.2102E-07
  3.2102E-07
  3.2102E-07
  3.2102E-07
  3.2102E-07
  1.1990E-06
  1.1990E-06
  1.1990E-06
  1.1990E-06
  1.1990E-06
  1.1990E-06
  1.1990E-06
  1.1990E-06
  1.1990E-06
  4.4781E-06
  4.4781E-06
  4.4781E-06
  4.4781E-06
  4.4781E-06
  4.4781E-06
  4.4781E-06
  4.4781E-06
  4.4781E-06
  1.6725E-05
  1.6725E-05
  1.6725E-05
  1.6725E-05
  1.6725E-05
  1.6725E-05
  1.6725E-05
  1.6725E-05
  1.6725E-05
  6.2467E-05
  6.2467E-05
  6.2467E-05
  6.2467E-05
  6.2467E-05
  6.2467E-05
  6.2467E-05
  6.2467E-05
  6.2467E-05
  2.3331E-04
  2.3331E-04
  2.3331E-04
  2.3331E-04
  2.3331E-04
  2.3331E-04
  2.3331E-04
  2.3331E-04
  2.3331E-04
  8.7139E-04
  8.7139E-04
  8.7139E-04
  8.7139E-04
  8.7139E-04
  8.7139E-04
  8.7139E-04
  8.7139E-04
  8.7139E-04
  3.2546E-03
  3.2546E-03
  3.2546E-03
  3.2546E-03
  3.2546E-03
  3.2546E-03
  3.2546E-03
  3.2546E-03
  3.2546E-03
  1.2156E-02
  1.2156E-02
  1.2156E-02
  1.2156E-02
  1.2156E-02
  1.2156E-02
  1.2156E-02
  1.2156E-02
  1.2156E-02
  4.5400E-02
  4.5400E-02
  4.5400E-02
  4.5400E-02
  4.5400E-02
  4.5400E-02
  4.5400E-02
  4.5400E-02
  4.5400E-02
  1.6956E-01
  1.6956E-01
  1.6956E-01
  1.6956E-01
  1.6956E-01
  1.6956E-01
  1.6956E-01
  1.6956E-01
  1.6956E-01
  6.3331E-01
  6.3331E-01
  6.3331E-01
  6.3331E-01
  6.3331E-01
  6.3331E-01
  6.3331E-01
  6.3331E-01
  6.3331E-01
  9.9911E-01
  9.9911E-01
  9.9911E-01
  9.9911E-01
  9.9911E-01
  9.9911E-01
  9.9911E-01
  9.9911E-01
  9.9911E-01
   2.3900E-02
  9.8642E-12
  9.8642E-12
  9.8642E-12
  9.8642E-12
  9.8642E-12
  9.8642E-12
  9.8642E-12
  9.8642E-12
  9.8642E-12
  2.9631E-11
  2.9631E-11
  2.9631E-11
  2.9631E-11
  2.9631E-11
  2.9631E-11
  2.9631E-11
  2.9631E-11
  2.9631E-11
  1.1863E-10
  1.1863E-10
  1.1863E-10
  1.1863E-10
  1.1863E-10
  1.1863E-10
  1.1863E-10
  1.1863E-10
  1.1863E-10
  4.4520E-10
  4.4520E-10
  4.4520E-10
  4.4520E-10
  4.4520E-10
  4.4520E-10
  4.4520E-10
  4.4520E-10
  4.4520E-10
  1.6634E-09
  1.6634E-09
  1.6634E-09
  1.6634E-09
  1.6634E-09
  1.6634E-09
  1.6634E-09
  1.6634E-09
  1.6634E-09
  6.2128E-09
  6.2128E-09
  6.2128E-09
  6.2128E-09
  6.2128E-09
  6.2128E-09
  6.2128E-09
  6.2128E-09
  6.2128E-09
  2.3204E-08
  2.3204E-08
  2.3204E-08
  2.3204E-08
  2.3204E-08
  2.3204E-08
  2.3204E-08
  2.3204E-08
  2.3204E-08
  8.6667E-08
  8.6667E-08
  8.6667E-08
  8.6667E-08
  8.6667E-08
  8.6667E-08
  8.6667E-08
  8.6667E-08
  8.6667E-08
  3.2370E-07
  3.2370E-07
  3.2370E-07
  3.2370E-07
  3.2370E-07
  3.2370E-07
  3.2370E-07
  3.2370E-07
  3.2370E-07
  1.2090E-06
  1.2090E-06
  1.2090E-06
  1.2090E-06
  1.2090E-06
  1.2090E-06
  1.2090E-06
  1.2090E-06
  1.2090E-06
  4.5155E-06
  4.5155E-06
  4.5155E-06
  4.5155E-06
  4.5155E-06
  4.5155E-06
  4.5155E-06
  4.5155E-06
  4.5155E-06
  1.6865E-05
  1.6865E-05
  1.6865E-05
  1.6865E-05
  1.6865E-05
  1.6865E-05
  1.6865E-05
  1.6865E-05
  1.6865E-05
  6.2990E-05
  6.2990E-05
  6.2990E-05
  6.2990E-05
  6.2990E-05
  6.2990E-05
  6.2990E-05
  6.2990E-05
  6.2990E-05
  2.3526E-04
  2.3526E-04
  2.3526E-04
  2.3526E-04
  2.3526E-04
  2.3526E-04
  2.3526E-04
  2.3526E-04
  2.3526E-04
  8.7870E-04
  8.7870E-04
  8.7870E-04
  8.7870E-04
  8.7870E-04
  8.7870E-04
  8.7870E-04
  8.7870E-04
  8.7870E-04
  3.2819E-03
  3.2819E-03
  3.2819E-03
  3.2819E-03
  3.2819E-03
  3.2819E-03
  3.2819E-03
  3.2819E-03
  3.2819E-03
  1.2258E-02
  1.2258E-02
  1.2258E-02
  1.2258E-02
  1.2258E-02
  1.2258E-02
  1.2258E-02
  1.2258E-02
  1.2258E-02
  4.5781E-02
  4.5781E-02
  4.5781E-02
  4.5781E-02
  4.5781E-02
  4.5781E-02
  4.5781E-02
  4.5781E-02
  4.5781E-02
  1.7099E-01
  1.7099E-01
  1.7099E-01
  1.7099E-01
  1.7099E-01
  1.7099E-01
  1.7099E-01
  1.7099E-01
  1.7099E-01
  6.3863E-01
  6.3863E-01
  6.3863E-01
  6.3863E-01
  6.3863E-01
  6.3863E-01
  6.3863E-01
  6.3863E-01
  6.3863E-01
  1.0075E+00
  1.0075E+00
  1.0075E+00
  1.0075E+00
  1.0075E+00
  1.0075E+00
  1.0075E+00
  1.0075E+00
  1.0075E+00
   2.4000E-02
  9.9456E-12
  9.9456E-12
  9.9456E-12
  9.9456E-12
  9.9456E-12
  9.9456E-12
  9.9456E-12
  9.9456E-12
  9.9456E-12
  2.9876E-11
  2.9876E-11
  2.9876E-11
  2.9876E-11
  2.9876E-11
  2.9876E-11
  2.9876E-11
  2.9876E-11
  2.9876E-11
  1.1961E-10
  1.1961E-10
  1.1961E-10
  1.1961E-10
  1.1961E-10
  1.1961E-10
  1.1961E-10
  1.1961E-10
  1.1961E-10
  4.4889E-10
  4.4889E-10
  4.4889E-10
  4.4889E-10
  4.4889E-10
  4.4889E-10
  4.4889E-10
  4.4889E-10
  4.4889E-10
  1.6772E-09
  1.6772E-09
  1.6772E-09
  1.6772E-09
  1.6772E-09
  1.6772E-09
  1.6772E-09
  1.6772E-09
  1.6772E-09
  6.2643E-09
  6.2643E-09
  6.2643E-09
  6.2643E-09
  6.2643E-09
  6.2643E-09
  6.2643E-09
  6.2643E-09
  6.2643E-09
  2.3397E-08
  2.3397E-08
  2.3397E-08
  2.3397E-08
  2.3397E-08
  2.3397E-08
  2.3397E-08
  2.3397E-08
  2.3397E-08
  8.7387E-08
  8.7387E-08
  8.7387E-08
  8.7387E-08
  8.7387E-08
  8.7387E-08
  8.7387E-08
  8.7387E-08
  8.7387E-08
  3.2639E-07
  3.2639E-07
  3.2639E-07
  3.2639E-07
  3.2639E-07
  3.2639E-07
  3.2639E-07
  3.2639E-07
  3.2639E-07
  1.2190E-06
  1.2190E-06
  1.2190E-06
  1.2190E-06
  1.2190E-06
  1.2190E-06
  1.2190E-06
  1.2190E-06
  1.2190E-06
  4.5531E-06
  4.5531E-06
  4.5531E-06
  4.5531E-06
  4.5531E-06
  4.5531E-06
  4.5531E-06
  4.5531E-06
  4.5531E-06
  1.7006E-05
  1.7006E-05
  1.7006E-05
  1.7006E-05
  1.7006E-05
  1.7006E-05
  1.7006E-05
  1.7006E-05
  1.7006E-05
  6.3515E-05
  6.3515E-05
  6.3515E-05
  6.3515E-05
  6.3515E-05
  6.3515E-05
  6.3515E-05
  6.3515E-05
  6.3515E-05
  2.3723E-04
  2.3723E-04
  2.3723E-04
  2.3723E-04
  2.3723E-04
  2.3723E-04
  2.3723E-04
  2.3723E-04
  2.3723E-04
  8.8603E-04
  8.8603E-04
  8.8603E-04
  8.8603E-04
  8.8603E-04
  8.8603E-04
  8.8603E-04
  8.8603E-04
  8.8603E-04
  3.3093E-03
  3.3093E-03
  3.3093E-03
  3.3093E-03
  3.3093E-03
  3.3093E-03
  3.3093E-03
  3.3093E-03
  3.3093E-03
  1.2360E-02
  1.2360E-02
  1.2360E-02
  1.2360E-02
  1.2360E-02
  1.2360E-02
  1.2360E-02
  1.2360E-02
  1.2360E-02
  4.6164E-02
  4.6164E-02
  4.6164E-02
  4.6164E-02
  4.6164E-02
  4.6164E-02
  4.6164E-02
  4.6164E-02
  4.6164E-02
  1.7242E-01
  1.7242E-01
  1.7242E-01
  1.7242E-01
  1.7242E-01
  1.7242E-01
  1.7242E-01
  1.7242E-01
  1.7242E-01
  6.4399E-01
  6.4399E-01
  6.4399E-01
  6.4399E-01
  6.4399E-01
  6.4399E-01
  6.4399E-01
  6.4399E-01
  6.4399E-01
  1.0160E+00
  1.0160E+00
  1.0160E+00
  1.0160E+00
  1.0160E+00
  1.0160E+00
  1.0160E+00
  1.0160E+00
  1.0160E+00
   2.4100E-02
  1.0027E-11
  1.0027E-11
  1.0027E-11
  1.0027E-11
  1.0027E-11
  1.0027E-11
  1.0027E-11
  1.0027E-11
  1.0027E-11
  3.0122E-11
  3.0122E-11
  3.0122E-11
  3.0122E-11
  3.0122E-11
  3.0122E-11
  3.0122E-11
  3.0122E-11
  3.0122E-11
  1.2059E-10
  1.2059E-10
  1.2059E-10
  1.2059E-10
  1.2059E-10
  1.2059E-10
  1.2059E-10
  1.2059E-10
  1.2059E-10
  4.5259E-10
  4.5259E-10
  4.5259E-10
  4.5259E-10
  4.5259E-10
  4.5259E-10
  4.5259E-10
  4.5259E-10
  4.5259E-10
  1.6910E-09
  1.6910E-09
  1.6910E-09
  1.6910E-09
  1.6910E-09
  1.6910E-09
  1.6910E-09
  1.6910E-09
  1.6910E-09
  6.3160E-09
  6.3160E-09
  6.3160E-09
  6.3160E-09
  6.3160E-09
  6.3160E-09
  6.3160E-09
  6.3160E-09
  6.3160E-09
  2.3590E-08
  2.3590E-08
  2.3590E-08
  2.3590E-08
  2.3590E-08
  2.3590E-08
  2.3590E-08
  2.3590E-08
  2.3590E-08
  8.8109E-08
  8.8109E-08
  8.8109E-08
  8.8109E-08
  8.8109E-08
  8.8109E-08
  8.8109E-08
  8.8109E-08
  8.8109E-08
  3.2909E-07
  3.2909E-07
  3.2909E-07
  3.2909E-07
  3.2909E-07
  3.2909E-07
  3.2909E-07
  3.2909E-07
  3.2909E-07
  1.2291E-06
  1.2291E-06
  1.2291E-06
  1.2291E-06
  1.2291E-06
  1.2291E-06
  1.2291E-06
  1.2291E-06
  1.2291E-06
  4.5908E-06
  4.5908E-06
  4.5908E-06
  4.5908E-06
  4.5908E-06
  4.5908E-06
  4.5908E-06
  4.5908E-06
  4.5908E-06
  1.7147E-05
  1.7147E-05
  1.7147E-05
  1.7147E-05
  1.7147E-05
  1.7147E-05
  1.7147E-05
  1.7147E-05
  1.7147E-05
  6.4042E-05
  6.4042E-05
  6.4042E-05
  6.4042E-05
  6.4042E-05
  6.4042E-05
  6.4042E-05
  6.4042E-05
  6.4042E-05
  2.3920E-04
  2.3920E-04
  2.3920E-04
  2.3920E-04
  2.3920E-04
  2.3920E-04
  2.3920E-04
  2.3920E-04
  2.3920E-04
  8.9340E-04
  8.9340E-04
  8.9340E-04
  8.9340E-04
  8.9340E-04
  8.9340E-04
  8.9340E-04
  8.9340E-04
  8.9340E-04
  3.3368E-03
  3.3368E-03
  3.3368E-03
  3.3368E-03
  3.3368E-03
  3.3368E-03
  3.3368E-03
  3.3368E-03
  3.3368E-03
  1.2463E-02
  1.2463E-02
  1.2463E-02
  1.2463E-02
  1.2463E-02
  1.2463E-02
  1.2463E-02
  1.2463E-02
  1.2463E-02
  4.6549E-02
  4.6549E-02
  4.6549E-02
  4.6549E-02
  4.6549E-02
  4.6549E-02
  4.6549E-02
  4.6549E-02
  4.6549E-02
  1.7386E-01
  1.7386E-01
  1.7386E-01
  1.7386E-01
  1.7386E-01
  1.7386E-01
  1.7386E-01
  1.7386E-01
  1.7386E-01
  6.4936E-01
  6.4936E-01
  6.4936E-01
  6.4936E-01
  6.4936E-01
  6.4936E-01
  6.4936E-01
  6.4936E-01
  6.4936E-01
  1.0244E+00
  1.0244E+00
  1.0244E+00
  1.0244E+00
  1.0244E+00
  1.0244E+00
  1.0244E+00
  1.0244E+00
  1.0244E+00
   2.4200E-02
  1.0109E-11
  1.0109E-11
  1.0109E-11
  1.0109E-11
  1.0109E-11
  1.0109E-11
  1.0109E-11
  1.0109E-11
  1.0109E-11
  3.0368E-11
  3.0368E-11
  3.0368E-11
  3.0368E-11
  3.0368E-11
  3.0368E-11
  3.0368E-11
  3.0368E-11
  3.0368E-11
  1.2158E-10
  1.2158E-10
  1.2158E-10
  1.2158E-10
  1.2158E-10
  1.2158E-10
  1.2158E-10
  1.2158E-10
  1.2158E-10
  4.5630E-10
  4.5630E-10
  4.5630E-10
  4.5630E-10
  4.5630E-10
  4.5630E-10
  4.5630E-10
  4.5630E-10
  4.5630E-10
  1.7049E-09
  1.7049E-09
  1.7049E-09
  1.7049E-09
  1.7049E-09
  1.7049E-09
  1.7049E-09
  1.7049E-09
  1.7049E-09
  6.3679E-09
  6.3679E-09
  6.3679E-09
  6.3679E-09
  6.3679E-09
  6.3679E-09
  6.3679E-09
  6.3679E-09
  6.3679E-09
  2.3784E-08
  2.3784E-08
  2.3784E-08
  2.3784E-08
  2.3784E-08
  2.3784E-08
  2.3784E-08
  2.3784E-08
  2.3784E-08
  8.8835E-08
  8.8835E-08
  8.8835E-08
  8.8835E-08
  8.8835E-08
  8.8835E-08
  8.8835E-08
  8.8835E-08
  8.8835E-08
  3.3180E-07
  3.3180E-07
  3.3180E-07
  3.3180E-07
  3.3180E-07
  3.3180E-07
  3.3180E-07
  3.3180E-07
  3.3180E-07
  1.2393E-06
  1.2393E-06
  1.2393E-06
  1.2393E-06
  1.2393E-06
  1.2393E-06
  1.2393E-06
  1.2393E-06
  1.2393E-06
  4.6287E-06
  4.6287E-06
  4.6287E-06
  4.6287E-06
  4.6287E-06
  4.6287E-06
  4.6287E-06
  4.6287E-06
  4.6287E-06
  1.7288E-05
  1.7288E-05
  1.7288E-05
  1.7288E-05
  1.7288E-05
  1.7288E-05
  1.7288E-05
  1.7288E-05
  1.7288E-05
  6.4572E-05
  6.4572E-05
  6.4572E-05
  6.4572E-05
  6.4572E-05
  6.4572E-05
  6.4572E-05
  6.4572E-05
  6.4572E-05
  2.4118E-04
  2.4118E-04
  2.4118E-04
  2.4118E-04
  2.4118E-04
  2.4118E-04
  2.4118E-04
  2.4118E-04
  2.4118E-04
  9.0079E-04
  9.0079E-04
  9.0079E-04
  9.0079E-04
  9.0079E-04
  9.0079E-04
  9.0079E-04
  9.0079E-04
  9.0079E-04
  3.3645E-03
  3.3645E-03
  3.3645E-03
  3.3645E-03
  3.3645E-03
  3.3645E-03
  3.3645E-03
  3.3645E-03
  3.3645E-03
  1.2566E-02
  1.2566E-02
  1.2566E-02
  1.2566E-02
  1.2566E-02
  1.2566E-02
  1.2566E-02
  1.2566E-02
  1.2566E-02
  4.6935E-02
  4.6935E-02
  4.6935E-02
  4.6935E-02
  4.6935E-02
  4.6935E-02
  4.6935E-02
  4.6935E-02
  4.6935E-02
  1.7530E-01
  1.7530E-01
  1.7530E-01
  1.7530E-01
  1.7530E-01
  1.7530E-01
  1.7530E-01
  1.7530E-01
  1.7530E-01
  6.5476E-01
  6.5476E-01
  6.5476E-01
  6.5476E-01
  6.5476E-01
  6.5476E-01
  6.5476E-01
  6.5476E-01
  6.5476E-01
  1.0330E+00
  1.0330E+00
  1.0330E+00
  1.0330E+00
  1.0330E+00
  1.0330E+00
  1.0330E+00
  1.0330E+00
  1.0330E+00
   2.4300E-02
  1.0192E-11
  1.0192E-11
  1.0192E-11
  1.0192E-11
  1.0192E-11
  1.0192E-11
  1.0192E-11
  1.0192E-11
  1.0192E-11
  3.0616E-11
  3.0616E-11
  3.0616E-11
  3.0616E-11
  3.0616E-11
  3.0616E-11
  3.0616E-11
  3.0616E-11
  3.0616E-11
  1.2258E-10
  1.2258E-10
  1.2258E-10
  1.2258E-10
  1.2258E-10
  1.2258E-10
  1.2258E-10
  1.2258E-10
  1.2258E-10
  4.6003E-10
  4.6003E-10
  4.6003E-10
  4.6003E-10
  4.6003E-10
  4.6003E-10
  4.6003E-10
  4.6003E-10
  4.6003E-10
  1.7188E-09
  1.7188E-09
  1.7188E-09
  1.7188E-09
  1.7188E-09
  1.7188E-09
  1.7188E-09
  1.7188E-09
  1.7188E-09
  6.4200E-09
  6.4200E-09
  6.4200E-09
  6.4200E-09
  6.4200E-09
  6.4200E-09
  6.4200E-09
  6.4200E-09
  6.4200E-09
  2.3979E-08
  2.3979E-08
  2.3979E-08
  2.3979E-08
  2.3979E-08
  2.3979E-08
  2.3979E-08
  2.3979E-08
  2.3979E-08
  8.9563E-08
  8.9563E-08
  8.9563E-08
  8.9563E-08
  8.9563E-08
  8.9563E-08
  8.9563E-08
  8.9563E-08
  8.9563E-08
  3.3452E-07
  3.3452E-07
  3.3452E-07
  3.3452E-07
  3.3452E-07
  3.3452E-07
  3.3452E-07
  3.3452E-07
  3.3452E-07
  1.2494E-06
  1.2494E-06
  1.2494E-06
  1.2494E-06
  1.2494E-06
  1.2494E-06
  1.2494E-06
  1.2494E-06
  1.2494E-06
  4.6667E-06
  4.6667E-06
  4.6667E-06
  4.6667E-06
  4.6667E-06
  4.6667E-06
  4.6667E-06
  4.6667E-06
  4.6667E-06
  1.7430E-05
  1.7430E-05
  1.7430E-05
  1.7430E-05
  1.7430E-05
  1.7430E-05
  1.7430E-05
  1.7430E-05
  1.7430E-05
  6.5103E-05
  6.5103E-05
  6.5103E-05
  6.5103E-05
  6.5103E-05
  6.5103E-05
  6.5103E-05
  6.5103E-05
  6.5103E-05
  2.4316E-04
  2.4316E-04
  2.4316E-04
  2.4316E-04
  2.4316E-04
  2.4316E-04
  2.4316E-04
  2.4316E-04
  2.4316E-04
  9.0822E-04
  9.0822E-04
  9.0822E-04
  9.0822E-04
  9.0822E-04
  9.0822E-04
  9.0822E-04
  9.0822E-04
  9.0822E-04
  3.3922E-03
  3.3922E-03
  3.3922E-03
  3.3922E-03
  3.3922E-03
  3.3922E-03
  3.3922E-03
  3.3922E-03
  3.3922E-03
  1.2670E-02
  1.2670E-02
  1.2670E-02
  1.2670E-02
  1.2670E-02
  1.2670E-02
  1.2670E-02
  1.2670E-02
  1.2670E-02
  4.7323E-02
  4.7323E-02
  4.7323E-02
  4.7323E-02
  4.7323E-02
  4.7323E-02
  4.7323E-02
  4.7323E-02
  4.7323E-02
  1.7675E-01
  1.7675E-01
  1.7675E-01
  1.7675E-01
  1.7675E-01
  1.7675E-01
  1.7675E-01
  1.7675E-01
  1.7675E-01
  6.6018E-01
  6.6018E-01
  6.6018E-01
  6.6018E-01
  6.6018E-01
  6.6018E-01
  6.6018E-01
  6.6018E-01
  6.6018E-01
  1.0415E+00
  1.0415E+00
  1.0415E+00
  1.0415E+00
  1.0415E+00
  1.0415E+00
  1.0415E+00
  1.0415E+00
  1.0415E+00
   2.4400E-02
  1.0274E-11
  1.0274E-11
  1.0274E-11
  1.0274E-11
  1.0274E-11
  1.0274E-11
  1.0274E-11
  1.0274E-11
  1.0274E-11
  3.0865E-11
  3.0865E-11
  3.0865E-11
  3.0865E-11
  3.0865E-11
  3.0865E-11
  3.0865E-11
  3.0865E-11
  3.0865E-11
  1.2357E-10
  1.2357E-10
  1.2357E-10
  1.2357E-10
  1.2357E-10
  1.2357E-10
  1.2357E-10
  1.2357E-10
  1.2357E-10
  4.6377E-10
  4.6377E-10
  4.6377E-10
  4.6377E-10
  4.6377E-10
  4.6377E-10
  4.6377E-10
  4.6377E-10
  4.6377E-10
  1.7328E-09
  1.7328E-09
  1.7328E-09
  1.7328E-09
  1.7328E-09
  1.7328E-09
  1.7328E-09
  1.7328E-09
  1.7328E-09
  6.4723E-09
  6.4723E-09
  6.4723E-09
  6.4723E-09
  6.4723E-09
  6.4723E-09
  6.4723E-09
  6.4723E-09
  6.4723E-09
  2.4175E-08
  2.4175E-08
  2.4175E-08
  2.4175E-08
  2.4175E-08
  2.4175E-08
  2.4175E-08
  2.4175E-08
  2.4175E-08
  9.0294E-08
  9.0294E-08
  9.0294E-08
  9.0294E-08
  9.0294E-08
  9.0294E-08
  9.0294E-08
  9.0294E-08
  9.0294E-08
  3.3725E-07
  3.3725E-07
  3.3725E-07
  3.3725E-07
  3.3725E-07
  3.3725E-07
  3.3725E-07
  3.3725E-07
  3.3725E-07
  1.2597E-06
  1.2597E-06
  1.2597E-06
  1.2597E-06
  1.2597E-06
  1.2597E-06
  1.2597E-06
  1.2597E-06
  1.2597E-06
  4.7049E-06
  4.7049E-06
  4.7049E-06
  4.7049E-06
  4.7049E-06
  4.7049E-06
  4.7049E-06
  4.7049E-06
  4.7049E-06
  1.7573E-05
  1.7573E-05
  1.7573E-05
  1.7573E-05
  1.7573E-05
  1.7573E-05
  1.7573E-05
  1.7573E-05
  1.7573E-05
  6.5637E-05
  6.5637E-05
  6.5637E-05
  6.5637E-05
  6.5637E-05
  6.5637E-05
  6.5637E-05
  6.5637E-05
  6.5637E-05
  2.4516E-04
  2.4516E-04
  2.4516E-04
  2.4516E-04
  2.4516E-04
  2.4516E-04
  2.4516E-04
  2.4516E-04
  2.4516E-04
  9.1567E-04
  9.1567E-04
  9.1567E-04
  9.1567E-04
  9.1567E-04
  9.1567E-04
  9.1567E-04
  9.1567E-04
  9.1567E-04
  3.4201E-03
  3.4201E-03
  3.4201E-03
  3.4201E-03
  3.4201E-03
  3.4201E-03
  3.4201E-03
  3.4201E-03
  3.4201E-03
  1.2774E-02
  1.2774E-02
  1.2774E-02
  1.2774E-02
  1.2774E-02
  1.2774E-02
  1.2774E-02
  1.2774E-02
  1.2774E-02
  4.7712E-02
  4.7712E-02
  4.7712E-02
  4.7712E-02
  4.7712E-02
  4.7712E-02
  4.7712E-02
  4.7712E-02
  4.7712E-02
  1.7821E-01
  1.7821E-01
  1.7821E-01
  1.7821E-01
  1.7821E-01
  1.7821E-01
  1.7821E-01
  1.7821E-01
  1.7821E-01
  6.6562E-01
  6.6562E-01
  6.6562E-01
  6.6562E-01
  6.6562E-01
  6.6562E-01
  6.6562E-01
  6.6562E-01
  6.6562E-01
  1.0501E+00
  1.0501E+00
  1.0501E+00
  1.0501E+00
  1.0501E+00
  1.0501E+00
  1.0501E+00
  1.0501E+00
  1.0501E+00
   2.4500E-02
  1.0357E-11
  1.0357E-11
  1.0357E-11
  1.0357E-11
  1.0357E-11
  1.0357E-11
  1.0357E-11
  1.0357E-11
  1.0357E-11
  3.1114E-11
  3.1114E-11
  3.1114E-11
  3.1114E-11
  3.1114E-11
  3.1114E-11
  3.1114E-11
  3.1114E-11
  3.1114E-11
  1.2457E-10
  1.2457E-10
  1.2457E-10
  1.2457E-10
  1.2457E-10
  1.2457E-10
  1.2457E-10
  1.2457E-10
  1.2457E-10
  4.6753E-10
  4.6753E-10
  4.6753E-10
  4.6753E-10
  4.6753E-10
  4.6753E-10
  4.6753E-10
  4.6753E-10
  4.6753E-10
  1.7469E-09
  1.7469E-09
  1.7469E-09
  1.7469E-09
  1.7469E-09
  1.7469E-09
  1.7469E-09
  1.7469E-09
  1.7469E-09
  6.5248E-09
  6.5248E-09
  6.5248E-09
  6.5248E-09
  6.5248E-09
  6.5248E-09
  6.5248E-09
  6.5248E-09
  6.5248E-09
  2.4371E-08
  2.4371E-08
  2.4371E-08
  2.4371E-08
  2.4371E-08
  2.4371E-08
  2.4371E-08
  2.4371E-08
  2.4371E-08
  9.1028E-08
  9.1028E-08
  9.1028E-08
  9.1028E-08
  9.1028E-08
  9.1028E-08
  9.1028E-08
  9.1028E-08
  9.1028E-08
  3.4000E-07
  3.4000E-07
  3.4000E-07
  3.4000E-07
  3.4000E-07
  3.4000E-07
  3.4000E-07
  3.4000E-07
  3.4000E-07
  1.2699E-06
  1.2699E-06
  1.2699E-06
  1.2699E-06
  1.2699E-06
  1.2699E-06
  1.2699E-06
  1.2699E-06
  1.2699E-06
  4.7432E-06
  4.7432E-06
  4.7432E-06
  4.7432E-06
  4.7432E-06
  4.7432E-06
  4.7432E-06
  4.7432E-06
  4.7432E-06
  1.7716E-05
  1.7716E-05
  1.7716E-05
  1.7716E-05
  1.7716E-05
  1.7716E-05
  1.7716E-05
  1.7716E-05
  1.7716E-05
  6.6172E-05
  6.6172E-05
  6.6172E-05
  6.6172E-05
  6.6172E-05
  6.6172E-05
  6.6172E-05
  6.6172E-05
  6.6172E-05
  2.4716E-04
  2.4716E-04
  2.4716E-04
  2.4716E-04
  2.4716E-04
  2.4716E-04
  2.4716E-04
  2.4716E-04
  2.4716E-04
  9.2316E-04
  9.2316E-04
  9.2316E-04
  9.2316E-04
  9.2316E-04
  9.2316E-04
  9.2316E-04
  9.2316E-04
  9.2316E-04
  3.4481E-03
  3.4481E-03
  3.4481E-03
  3.4481E-03
  3.4481E-03
  3.4481E-03
  3.4481E-03
  3.4481E-03
  3.4481E-03
  1.2879E-02
  1.2879E-02
  1.2879E-02
  1.2879E-02
  1.2879E-02
  1.2879E-02
  1.2879E-02
  1.2879E-02
  1.2879E-02
  4.8103E-02
  4.8103E-02
  4.8103E-02
  4.8103E-02
  4.8103E-02
  4.8103E-02
  4.8103E-02
  4.8103E-02
  4.8103E-02
  1.7967E-01
  1.7967E-01
  1.7967E-01
  1.7967E-01
  1.7967E-01
  1.7967E-01
  1.7967E-01
  1.7967E-01
  1.7967E-01
  6.7108E-01
  6.7108E-01
  6.7108E-01
  6.7108E-01
  6.7108E-01
  6.7108E-01
  6.7108E-01
  6.7108E-01
  6.7108E-01
  1.0587E+00
  1.0587E+00
  1.0587E+00
  1.0587E+00
  1.0587E+00
  1.0587E+00
  1.0587E+00
  1.0587E+00
  1.0587E+00
   2.4600E-02
  1.0441E-11
  1.0441E-11
  1.0441E-11
  1.0441E-11
  1.0441E-11
  1.0441E-11
  1.0441E-11
  1.0441E-11
  1.0441E-11
  3.1365E-11
  3.1365E-11
  3.1365E-11
  3.1365E-11
  3.1365E-11
  3.1365E-11
  3.1365E-11
  3.1365E-11
  3.1365E-11
  1.2558E-10
  1.2558E-10
  1.2558E-10
  1.2558E-10
  1.2558E-10
  1.2558E-10
  1.2558E-10
  1.2558E-10
  1.2558E-10
  4.7130E-10
  4.7130E-10
  4.7130E-10
  4.7130E-10
  4.7130E-10
  4.7130E-10
  4.7130E-10
  4.7130E-10
  4.7130E-10
  1.7610E-09
  1.7610E-09
  1.7610E-09
  1.7610E-09
  1.7610E-09
  1.7610E-09
  1.7610E-09
  1.7610E-09
  1.7610E-09
  6.5776E-09
  6.5776E-09
  6.5776E-09
  6.5776E-09
  6.5776E-09
  6.5776E-09
  6.5776E-09
  6.5776E-09
  6.5776E-09
  2.4568E-08
  2.4568E-08
  2.4568E-08
  2.4568E-08
  2.4568E-08
  2.4568E-08
  2.4568E-08
  2.4568E-08
  2.4568E-08
  9.1764E-08
  9.1764E-08
  9.1764E-08
  9.1764E-08
  9.1764E-08
  9.1764E-08
  9.1764E-08
  9.1764E-08
  9.1764E-08
  3.4275E-07
  3.4275E-07
  3.4275E-07
  3.4275E-07
  3.4275E-07
  3.4275E-07
  3.4275E-07
  3.4275E-07
  3.4275E-07
  1.2802E-06
  1.2802E-06
  1.2802E-06
  1.2802E-06
  1.2802E-06
  1.2802E-06
  1.2802E-06
  1.2802E-06
  1.2802E-06
  4.7817E-06
  4.7817E-06
  4.7817E-06
  4.7817E-06
  4.7817E-06
  4.7817E-06
  4.7817E-06
  4.7817E-06
  4.7817E-06
  1.7860E-05
  1.7860E-05
  1.7860E-05
  1.7860E-05
  1.7860E-05
  1.7860E-05
  1.7860E-05
  1.7860E-05
  1.7860E-05
  6.6710E-05
  6.6710E-05
  6.6710E-05
  6.6710E-05
  6.6710E-05
  6.6710E-05
  6.6710E-05
  6.6710E-05
  6.6710E-05
  2.4917E-04
  2.4917E-04
  2.4917E-04
  2.4917E-04
  2.4917E-04
  2.4917E-04
  2.4917E-04
  2.4917E-04
  2.4917E-04
  9.3068E-04
  9.3068E-04
  9.3068E-04
  9.3068E-04
  9.3068E-04
  9.3068E-04
  9.3068E-04
  9.3068E-04
  9.3068E-04
  3.4762E-03
  3.4762E-03
  3.4762E-03
  3.4762E-03
  3.4762E-03
  3.4762E-03
  3.4762E-03
  3.4762E-03
  3.4762E-03
  1.2984E-02
  1.2984E-02
  1.2984E-02
  1.2984E-02
  1.2984E-02
  1.2984E-02
  1.2984E-02
  1.2984E-02
  1.2984E-02
  4.8496E-02
  4.8496E-02
  4.8496E-02
  4.8496E-02
  4.8496E-02
  4.8496E-02
  4.8496E-02
  4.8496E-02
  4.8496E-02
  1.8114E-01
  1.8114E-01
  1.8114E-01
  1.8114E-01
  1.8114E-01
  1.8114E-01
  1.8114E-01
  1.8114E-01
  1.8114E-01
  6.7657E-01
  6.7657E-01
  6.7657E-01
  6.7657E-01
  6.7657E-01
  6.7657E-01
  6.7657E-01
  6.7657E-01
  6.7657E-01
  1.0674E+00
  1.0674E+00
  1.0674E+00
  1.0674E+00
  1.0674E+00
  1.0674E+00
  1.0674E+00
  1.0674E+00
  1.0674E+00
   2.4700E-02
  1.0524E-11
  1.0524E-11
  1.0524E-11
  1.0524E-11
  1.0524E-11
  1.0524E-11
  1.0524E-11
  1.0524E-11
  1.0524E-11
  3.1616E-11
  3.1616E-11
  3.1616E-11
  3.1616E-11
  3.1616E-11
  3.1616E-11
  3.1616E-11
  3.1616E-11
  3.1616E-11
  1.2658E-10
  1.2658E-10
  1.2658E-10
  1.2658E-10
  1.2658E-10
  1.2658E-10
  1.2658E-10
  1.2658E-10
  1.2658E-10
  4.7508E-10
  4.7508E-10
  4.7508E-10
  4.7508E-10
  4.7508E-10
  4.7508E-10
  4.7508E-10
  4.7508E-10
  4.7508E-10
  1.7751E-09
  1.7751E-09
  1.7751E-09
  1.7751E-09
  1.7751E-09
  1.7751E-09
  1.7751E-09
  1.7751E-09
  1.7751E-09
  6.6305E-09
  6.6305E-09
  6.6305E-09
  6.6305E-09
  6.6305E-09
  6.6305E-09
  6.6305E-09
  6.6305E-09
  6.6305E-09
  2.4766E-08
  2.4766E-08
  2.4766E-08
  2.4766E-08
  2.4766E-08
  2.4766E-08
  2.4766E-08
  2.4766E-08
  2.4766E-08
  9.2504E-08
  9.2504E-08
  9.2504E-08
  9.2504E-08
  9.2504E-08
  9.2504E-08
  9.2504E-08
  9.2504E-08
  9.2504E-08
  3.4552E-07
  3.4552E-07
  3.4552E-07
  3.4552E-07
  3.4552E-07
  3.4552E-07
  3.4552E-07
  3.4552E-07
  3.4552E-07
  1.2905E-06
  1.2905E-06
  1.2905E-06
  1.2905E-06
  1.2905E-06
  1.2905E-06
  1.2905E-06
  1.2905E-06
  1.2905E-06
  4.8204E-06
  4.8204E-06
  4.8204E-06
  4.8204E-06
  4.8204E-06
  4.8204E-06
  4.8204E-06
  4.8204E-06
  4.8204E-06
  1.8005E-05
  1.8005E-05
  1.8005E-05
  1.8005E-05
  1.8005E-05
  1.8005E-05
  1.8005E-05
  1.8005E-05
  1.8005E-05
  6.7250E-05
  6.7250E-05
  6.7250E-05
  6.7250E-05
  6.7250E-05
  6.7250E-05
  6.7250E-05
  6.7250E-05
  6.7250E-05
  2.5119E-04
  2.5119E-04
  2.5119E-04
  2.5119E-04
  2.5119E-04
  2.5119E-04
  2.5119E-04
  2.5119E-04
  2.5119E-04
  9.3822E-04
  9.3822E-04
  9.3822E-04
  9.3822E-04
  9.3822E-04
  9.3822E-04
  9.3822E-04
  9.3822E-04
  9.3822E-04
  3.5044E-03
  3.5044E-03
  3.5044E-03
  3.5044E-03
  3.5044E-03
  3.5044E-03
  3.5044E-03
  3.5044E-03
  3.5044E-03
  1.3089E-02
  1.3089E-02
  1.3089E-02
  1.3089E-02
  1.3089E-02
  1.3089E-02
  1.3089E-02
  1.3089E-02
  1.3089E-02
  4.8890E-02
  4.8890E-02
  4.8890E-02
  4.8890E-02
  4.8890E-02
  4.8890E-02
  4.8890E-02
  4.8890E-02
  4.8890E-02
  1.8261E-01
  1.8261E-01
  1.8261E-01
  1.8261E-01
  1.8261E-01
  1.8261E-01
  1.8261E-01
  1.8261E-01
  1.8261E-01
  6.8207E-01
  6.8207E-01
  6.8207E-01
  6.8207E-01
  6.8207E-01
  6.8207E-01
  6.8207E-01
  6.8207E-01
  6.8207E-01
  1.0761E+00
  1.0761E+00
  1.0761E+00
  1.0761E+00
  1.0761E+00
  1.0761E+00
  1.0761E+00
  1.0761E+00
  1.0761E+00
   2.4800E-02
  1.0608E-11
  1.0608E-11
  1.0608E-11
  1.0608E-11
  1.0608E-11
  1.0608E-11
  1.0608E-11
  1.0608E-11
  1.0608E-11
  3.1869E-11
  3.1869E-11
  3.1869E-11
  3.1869E-11
  3.1869E-11
  3.1869E-11
  3.1869E-11
  3.1869E-11
  3.1869E-11
  1.2760E-10
  1.2760E-10
  1.2760E-10
  1.2760E-10
  1.2760E-10
  1.2760E-10
  1.2760E-10
  1.2760E-10
  1.2760E-10
  4.7888E-10
  4.7888E-10
  4.7888E-10
  4.7888E-10
  4.7888E-10
  4.7888E-10
  4.7888E-10
  4.7888E-10
  4.7888E-10
  1.7893E-09
  1.7893E-09
  1.7893E-09
  1.7893E-09
  1.7893E-09
  1.7893E-09
  1.7893E-09
  1.7893E-09
  1.7893E-09
  6.6836E-09
  6.6836E-09
  6.6836E-09
  6.6836E-09
  6.6836E-09
  6.6836E-09
  6.6836E-09
  6.6836E-09
  6.6836E-09
  2.4964E-08
  2.4964E-08
  2.4964E-08
  2.4964E-08
  2.4964E-08
  2.4964E-08
  2.4964E-08
  2.4964E-08
  2.4964E-08
  9.3246E-08
  9.3246E-08
  9.3246E-08
  9.3246E-08
  9.3246E-08
  9.3246E-08
  9.3246E-08
  9.3246E-08
  9.3246E-08
  3.4829E-07
  3.4829E-07
  3.4829E-07
  3.4829E-07
  3.4829E-07
  3.4829E-07
  3.4829E-07
  3.4829E-07
  3.4829E-07
  1.3009E-06
  1.3009E-06
  1.3009E-06
  1.3009E-06
  1.3009E-06
  1.3009E-06
  1.3009E-06
  1.3009E-06
  1.3009E-06
  4.8592E-06
  4.8592E-06
  4.8592E-06
  4.8592E-06
  4.8592E-06
  4.8592E-06
  4.8592E-06
  4.8592E-06
  4.8592E-06
  1.8150E-05
  1.8150E-05
  1.8150E-05
  1.8150E-05
  1.8150E-05
  1.8150E-05
  1.8150E-05
  1.8150E-05
  1.8150E-05
  6.7792E-05
  6.7792E-05
  6.7792E-05
  6.7792E-05
  6.7792E-05
  6.7792E-05
  6.7792E-05
  6.7792E-05
  6.7792E-05
  2.5321E-04
  2.5321E-04
  2.5321E-04
  2.5321E-04
  2.5321E-04
  2.5321E-04
  2.5321E-04
  2.5321E-04
  2.5321E-04
  9.4580E-04
  9.4580E-04
  9.4580E-04
  9.4580E-04
  9.4580E-04
  9.4580E-04
  9.4580E-04
  9.4580E-04
  9.4580E-04
  3.5327E-03
  3.5327E-03
  3.5327E-03
  3.5327E-03
  3.5327E-03
  3.5327E-03
  3.5327E-03
  3.5327E-03
  3.5327E-03
  1.3195E-02
  1.3195E-02
  1.3195E-02
  1.3195E-02
  1.3195E-02
  1.3195E-02
  1.3195E-02
  1.3195E-02
  1.3195E-02
  4.9286E-02
  4.9286E-02
  4.9286E-02
  4.9286E-02
  4.9286E-02
  4.9286E-02
  4.9286E-02
  4.9286E-02
  4.9286E-02
  1.8409E-01
  1.8409E-01
  1.8409E-01
  1.8409E-01
  1.8409E-01
  1.8409E-01
  1.8409E-01
  1.8409E-01
  1.8409E-01
  6.8760E-01
  6.8760E-01
  6.8760E-01
  6.8760E-01
  6.8760E-01
  6.8760E-01
  6.8760E-01
  6.8760E-01
  6.8760E-01
  1.0848E+00
  1.0848E+00
  1.0848E+00
  1.0848E+00
  1.0848E+00
  1.0848E+00
  1.0848E+00
  1.0848E+00
  1.0848E+00
   2.4900E-02
  1.0692E-11
  1.0692E-11
  1.0692E-11
  1.0692E-11
  1.0692E-11
  1.0692E-11
  1.0692E-11
  1.0692E-11
  1.0692E-11
  3.2122E-11
  3.2122E-11
  3.2122E-11
  3.2122E-11
  3.2122E-11
  3.2122E-11
  3.2122E-11
  3.2122E-11
  3.2122E-11
  1.2861E-10
  1.2861E-10
  1.2861E-10
  1.2861E-10
  1.2861E-10
  1.2861E-10
  1.2861E-10
  1.2861E-10
  1.2861E-10
  4.8270E-10
  4.8270E-10
  4.8270E-10
  4.8270E-10
  4.8270E-10
  4.8270E-10
  4.8270E-10
  4.8270E-10
  4.8270E-10
  1.8036E-09
  1.8036E-09
  1.8036E-09
  1.8036E-09
  1.8036E-09
  1.8036E-09
  1.8036E-09
  1.8036E-09
  1.8036E-09
  6.7369E-09
  6.7369E-09
  6.7369E-09
  6.7369E-09
  6.7369E-09
  6.7369E-09
  6.7369E-09
  6.7369E-09
  6.7369E-09
  2.5164E-08
  2.5164E-08
  2.5164E-08
  2.5164E-08
  2.5164E-08
  2.5164E-08
  2.5164E-08
  2.5164E-08
  2.5164E-08
  9.3992E-08
  9.3992E-08
  9.3992E-08
  9.3992E-08
  9.3992E-08
  9.3992E-08
  9.3992E-08
  9.3992E-08
  9.3992E-08
  3.5108E-07
  3.5108E-07
  3.5108E-07
  3.5108E-07
  3.5108E-07
  3.5108E-07
  3.5108E-07
  3.5108E-07
  3.5108E-07
  1.3113E-06
  1.3113E-06
  1.3113E-06
  1.3113E-06
  1.3113E-06
  1.3113E-06
  1.3113E-06
  1.3113E-06
  1.3113E-06
  4.8981E-06
  4.8981E-06
  4.8981E-06
  4.8981E-06
  4.8981E-06
  4.8981E-06
  4.8981E-06
  4.8981E-06
  4.8981E-06
  1.8295E-05
  1.8295E-05
  1.8295E-05
  1.8295E-05
  1.8295E-05
  1.8295E-05
  1.8295E-05
  1.8295E-05
  1.8295E-05
  6.8336E-05
  6.8336E-05
  6.8336E-05
  6.8336E-05
  6.8336E-05
  6.8336E-05
  6.8336E-05
  6.8336E-05
  6.8336E-05
  2.5525E-04
  2.5525E-04
  2.5525E-04
  2.5525E-04
  2.5525E-04
  2.5525E-04
  2.5525E-04
  2.5525E-04
  2.5525E-04
  9.5340E-04
  9.5340E-04
  9.5340E-04
  9.5340E-04
  9.5340E-04
  9.5340E-04
  9.5340E-04
  9.5340E-04
  9.5340E-04
  3.5611E-03
  3.5611E-03
  3.5611E-03
  3.5611E-03
  3.5611E-03
  3.5611E-03
  3.5611E-03
  3.5611E-03
  3.5611E-03
  1.3301E-02
  1.3301E-02
  1.3301E-02
  1.3301E-02
  1.3301E-02
  1.3301E-02
  1.3301E-02
  1.3301E-02
  1.3301E-02
  4.9683E-02
  4.9683E-02
  4.9683E-02
  4.9683E-02
  4.9683E-02
  4.9683E-02
  4.9683E-02
  4.9683E-02
  4.9683E-02
  1.8558E-01
  1.8558E-01
  1.8558E-01
  1.8558E-01
  1.8558E-01
  1.8558E-01
  1.8558E-01
  1.8558E-01
  1.8558E-01
  6.9316E-01
  6.9316E-01
  6.9316E-01
  6.9316E-01
  6.9316E-01
  6.9316E-01
  6.9316E-01
  6.9316E-01
  6.9316E-01
  1.0935E+00
  1.0935E+00
  1.0935E+00
  1.0935E+00
  1.0935E+00
  1.0935E+00
  1.0935E+00
  1.0935E+00
  1.0935E+00
   2.5000E-02
  1.0777E-11
  1.0777E-11
  1.0777E-11
  1.0777E-11
  1.0777E-11
  1.0777E-11
  1.0777E-11
  1.0777E-11
  1.0777E-11
  3.2376E-11
  3.2376E-11
  3.2376E-11
  3.2376E-11
  3.2376E-11
  3.2376E-11
  3.2376E-11
  3.2376E-11
  3.2376E-11
  1.2963E-10
  1.2963E-10
  1.2963E-10
  1.2963E-10
  1.2963E-10
  1.2963E-10
  1.2963E-10
  1.2963E-10
  1.2963E-10
  4.8653E-10
  4.8653E-10
  4.8653E-10
  4.8653E-10
  4.8653E-10
  4.8653E-10
  4.8653E-10
  4.8653E-10
  4.8653E-10
  1.8179E-09
  1.8179E-09
  1.8179E-09
  1.8179E-09
  1.8179E-09
  1.8179E-09
  1.8179E-09
  1.8179E-09
  1.8179E-09
  6.7905E-09
  6.7905E-09
  6.7905E-09
  6.7905E-09
  6.7905E-09
  6.7905E-09
  6.7905E-09
  6.7905E-09
  6.7905E-09
  2.5364E-08
  2.5364E-08
  2.5364E-08
  2.5364E-08
  2.5364E-08
  2.5364E-08
  2.5364E-08
  2.5364E-08
  2.5364E-08
  9.4740E-08
  9.4740E-08
  9.4740E-08
  9.4740E-08
  9.4740E-08
  9.4740E-08
  9.4740E-08
  9.4740E-08
  9.4740E-08
  3.5387E-07
  3.5387E-07
  3.5387E-07
  3.5387E-07
  3.5387E-07
  3.5387E-07
  3.5387E-07
  3.5387E-07
  3.5387E-07
  1.3218E-06
  1.3218E-06
  1.3218E-06
  1.3218E-06
  1.3218E-06
  1.3218E-06
  1.3218E-06
  1.3218E-06
  1.3218E-06
  4.9372E-06
  4.9372E-06
  4.9372E-06
  4.9372E-06
  4.9372E-06
  4.9372E-06
  4.9372E-06
  4.9372E-06
  4.9372E-06
  1.8441E-05
  1.8441E-05
  1.8441E-05
  1.8441E-05
  1.8441E-05
  1.8441E-05
  1.8441E-05
  1.8441E-05
  1.8441E-05
  6.8883E-05
  6.8883E-05
  6.8883E-05
  6.8883E-05
  6.8883E-05
  6.8883E-05
  6.8883E-05
  6.8883E-05
  6.8883E-05
  2.5729E-04
  2.5729E-04
  2.5729E-04
  2.5729E-04
  2.5729E-04
  2.5729E-04
  2.5729E-04
  2.5729E-04
  2.5729E-04
  9.6104E-04
  9.6104E-04
  9.6104E-04
  9.6104E-04
  9.6104E-04
  9.6104E-04
  9.6104E-04
  9.6104E-04
  9.6104E-04
  3.5897E-03
  3.5897E-03
  3.5897E-03
  3.5897E-03
  3.5897E-03
  3.5897E-03
  3.5897E-03
  3.5897E-03
  3.5897E-03
  1.3408E-02
  1.3408E-02
  1.3408E-02
  1.3408E-02
  1.3408E-02
  1.3408E-02
  1.3408E-02
  1.3408E-02
  1.3408E-02
  5.0082E-02
  5.0082E-02
  5.0082E-02
  5.0082E-02
  5.0082E-02
  5.0082E-02
  5.0082E-02
  5.0082E-02
  5.0082E-02
  1.8707E-01
  1.8707E-01
  1.8707E-01
  1.8707E-01
  1.8707E-01
  1.8707E-01
  1.8707E-01
  1.8707E-01
  1.8707E-01
  6.9873E-01
  6.9873E-01
  6.9873E-01
  6.9873E-01
  6.9873E-01
  6.9873E-01
  6.9873E-01
  6.9873E-01
  6.9873E-01
  1.1023E+00
  1.1023E+00
  1.1023E+00
  1.1023E+00
  1.1023E+00
  1.1023E+00
  1.1023E+00
  1.1023E+00
  1.1023E+00
   2.5100E-02
  1.0862E-11
  1.0862E-11
  1.0862E-11
  1.0862E-11
  1.0862E-11
  1.0862E-11
  1.0862E-11
  1.0862E-11
  1.0862E-11
  3.2632E-11
  3.2632E-11
  3.2632E-11
  3.2632E-11
  3.2632E-11
  3.2632E-11
  3.2632E-11
  3.2632E-11
  3.2632E-11
  1.3065E-10
  1.3065E-10
  1.3065E-10
  1.3065E-10
  1.3065E-10
  1.3065E-10
  1.3065E-10
  1.3065E-10
  1.3065E-10
  4.9037E-10
  4.9037E-10
  4.9037E-10
  4.9037E-10
  4.9037E-10
  4.9037E-10
  4.9037E-10
  4.9037E-10
  4.9037E-10
  1.8323E-09
  1.8323E-09
  1.8323E-09
  1.8323E-09
  1.8323E-09
  1.8323E-09
  1.8323E-09
  1.8323E-09
  1.8323E-09
  6.8442E-09
  6.8442E-09
  6.8442E-09
  6.8442E-09
  6.8442E-09
  6.8442E-09
  6.8442E-09
  6.8442E-09
  6.8442E-09
  2.5565E-08
  2.5565E-08
  2.5565E-08
  2.5565E-08
  2.5565E-08
  2.5565E-08
  2.5565E-08
  2.5565E-08
  2.5565E-08
  9.5491E-08
  9.5491E-08
  9.5491E-08
  9.5491E-08
  9.5491E-08
  9.5491E-08
  9.5491E-08
  9.5491E-08
  9.5491E-08
  3.5668E-07
  3.5668E-07
  3.5668E-07
  3.5668E-07
  3.5668E-07
  3.5668E-07
  3.5668E-07
  3.5668E-07
  3.5668E-07
  1.3323E-06
  1.3323E-06
  1.3323E-06
  1.3323E-06
  1.3323E-06
  1.3323E-06
  1.3323E-06
  1.3323E-06
  1.3323E-06
  4.9764E-06
  4.9764E-06
  4.9764E-06
  4.9764E-06
  4.9764E-06
  4.9764E-06
  4.9764E-06
  4.9764E-06
  4.9764E-06
  1.8588E-05
  1.8588E-05
  1.8588E-05
  1.8588E-05
  1.8588E-05
  1.8588E-05
  1.8588E-05
  1.8588E-05
  1.8588E-05
  6.9431E-05
  6.9431E-05
  6.9431E-05
  6.9431E-05
  6.9431E-05
  6.9431E-05
  6.9431E-05
  6.9431E-05
  6.9431E-05
  2.5934E-04
  2.5934E-04
  2.5934E-04
  2.5934E-04
  2.5934E-04
  2.5934E-04
  2.5934E-04
  2.5934E-04
  2.5934E-04
  9.6870E-04
  9.6870E-04
  9.6870E-04
  9.6870E-04
  9.6870E-04
  9.6870E-04
  9.6870E-04
  9.6870E-04
  9.6870E-04
  3.6183E-03
  3.6183E-03
  3.6183E-03
  3.6183E-03
  3.6183E-03
  3.6183E-03
  3.6183E-03
  3.6183E-03
  3.6183E-03
  1.3515E-02
  1.3515E-02
  1.3515E-02
  1.3515E-02
  1.3515E-02
  1.3515E-02
  1.3515E-02
  1.3515E-02
  1.3515E-02
  5.0483E-02
  5.0483E-02
  5.0483E-02
  5.0483E-02
  5.0483E-02
  5.0483E-02
  5.0483E-02
  5.0483E-02
  5.0483E-02
  1.8856E-01
  1.8856E-01
  1.8856E-01
  1.8856E-01
  1.8856E-01
  1.8856E-01
  1.8856E-01
  1.8856E-01
  1.8856E-01
  7.0433E-01
  7.0433E-01
  7.0433E-01
  7.0433E-01
  7.0433E-01
  7.0433E-01
  7.0433E-01
  7.0433E-01
  7.0433E-01
  1.1112E+00
  1.1112E+00
  1.1112E+00
  1.1112E+00
  1.1112E+00
  1.1112E+00
  1.1112E+00
  1.1112E+00
  1.1112E+00
   2.5200E-02
  1.0947E-11
  1.0947E-11
  1.0947E-11
  1.0947E-11
  1.0947E-11
  1.0947E-11
  1.0947E-11
  1.0947E-11
  1.0947E-11
  3.2888E-11
  3.2888E-11
  3.2888E-11
  3.2888E-11
  3.2888E-11
  3.2888E-11
  3.2888E-11
  3.2888E-11
  3.2888E-11
  1.3168E-10
  1.3168E-10
  1.3168E-10
  1.3168E-10
  1.3168E-10
  1.3168E-10
  1.3168E-10
  1.3168E-10
  1.3168E-10
  4.9423E-10
  4.9423E-10
  4.9423E-10
  4.9423E-10
  4.9423E-10
  4.9423E-10
  4.9423E-10
  4.9423E-10
  4.9423E-10
  1.8467E-09
  1.8467E-09
  1.8467E-09
  1.8467E-09
  1.8467E-09
  1.8467E-09
  1.8467E-09
  1.8467E-09
  1.8467E-09
  6.8982E-09
  6.8982E-09
  6.8982E-09
  6.8982E-09
  6.8982E-09
  6.8982E-09
  6.8982E-09
  6.8982E-09
  6.8982E-09
  2.5767E-08
  2.5767E-08
  2.5767E-08
  2.5767E-08
  2.5767E-08
  2.5767E-08
  2.5767E-08
  2.5767E-08
  2.5767E-08
  9.6245E-08
  9.6245E-08
  9.6245E-08
  9.6245E-08
  9.6245E-08
  9.6245E-08
  9.6245E-08
  9.6245E-08
  9.6245E-08
  3.5950E-07
  3.5950E-07
  3.5950E-07
  3.5950E-07
  3.5950E-07
  3.5950E-07
  3.5950E-07
  3.5950E-07
  3.5950E-07
  1.3428E-06
  1.3428E-06
  1.3428E-06
  1.3428E-06
  1.3428E-06
  1.3428E-06
  1.3428E-06
  1.3428E-06
  1.3428E-06
  5.0158E-06
  5.0158E-06
  5.0158E-06
  5.0158E-06
  5.0158E-06
  5.0158E-06
  5.0158E-06
  5.0158E-06
  5.0158E-06
  1.8735E-05
  1.8735E-05
  1.8735E-05
  1.8735E-05
  1.8735E-05
  1.8735E-05
  1.8735E-05
  1.8735E-05
  1.8735E-05
  6.9982E-05
  6.9982E-05
  6.9982E-05
  6.9982E-05
  6.9982E-05
  6.9982E-05
  6.9982E-05
  6.9982E-05
  6.9982E-05
  2.6140E-04
  2.6140E-04
  2.6140E-04
  2.6140E-04
  2.6140E-04
  2.6140E-04
  2.6140E-04
  2.6140E-04
  2.6140E-04
  9.7640E-04
  9.7640E-04
  9.7640E-04
  9.7640E-04
  9.7640E-04
  9.7640E-04
  9.7640E-04
  9.7640E-04
  9.7640E-04
  3.6471E-03
  3.6471E-03
  3.6471E-03
  3.6471E-03
  3.6471E-03
  3.6471E-03
  3.6471E-03
  3.6471E-03
  3.6471E-03
  1.3623E-02
  1.3623E-02
  1.3623E-02
  1.3623E-02
  1.3623E-02
  1.3623E-02
  1.3623E-02
  1.3623E-02
  1.3623E-02
  5.0885E-02
  5.0885E-02
  5.0885E-02
  5.0885E-02
  5.0885E-02
  5.0885E-02
  5.0885E-02
  5.0885E-02
  5.0885E-02
  1.9007E-01
  1.9007E-01
  1.9007E-01
  1.9007E-01
  1.9007E-01
  1.9007E-01
  1.9007E-01
  1.9007E-01
  1.9007E-01
  7.0995E-01
  7.0995E-01
  7.0995E-01
  7.0995E-01
  7.0995E-01
  7.0995E-01
  7.0995E-01
  7.0995E-01
  7.0995E-01
  1.1200E+00
  1.1200E+00
  1.1200E+00
  1.1200E+00
  1.1200E+00
  1.1200E+00
  1.1200E+00
  1.1200E+00
  1.1200E+00
   2.5300E-02
  1.1032E-11
  1.1032E-11
  1.1032E-11
  1.1032E-11
  1.1032E-11
  1.1032E-11
  1.1032E-11
  1.1032E-11
  1.1032E-11
  3.3145E-11
  3.3145E-11
  3.3145E-11
  3.3145E-11
  3.3145E-11
  3.3145E-11
  3.3145E-11
  3.3145E-11
  3.3145E-11
  1.3271E-10
  1.3271E-10
  1.3271E-10
  1.3271E-10
  1.3271E-10
  1.3271E-10
  1.3271E-10
  1.3271E-10
  1.3271E-10
  4.9810E-10
  4.9810E-10
  4.9810E-10
  4.9810E-10
  4.9810E-10
  4.9810E-10
  4.9810E-10
  4.9810E-10
  4.9810E-10
  1.8612E-09
  1.8612E-09
  1.8612E-09
  1.8612E-09
  1.8612E-09
  1.8612E-09
  1.8612E-09
  1.8612E-09
  1.8612E-09
  6.9523E-09
  6.9523E-09
  6.9523E-09
  6.9523E-09
  6.9523E-09
  6.9523E-09
  6.9523E-09
  6.9523E-09
  6.9523E-09
  2.5969E-08
  2.5969E-08
  2.5969E-08
  2.5969E-08
  2.5969E-08
  2.5969E-08
  2.5969E-08
  2.5969E-08
  2.5969E-08
  9.7002E-08
  9.7002E-08
  9.7002E-08
  9.7002E-08
  9.7002E-08
  9.7002E-08
  9.7002E-08
  9.7002E-08
  9.7002E-08
  3.6233E-07
  3.6233E-07
  3.6233E-07
  3.6233E-07
  3.6233E-07
  3.6233E-07
  3.6233E-07
  3.6233E-07
  3.6233E-07
  1.3534E-06
  1.3534E-06
  1.3534E-06
  1.3534E-06
  1.3534E-06
  1.3534E-06
  1.3534E-06
  1.3534E-06
  1.3534E-06
  5.0554E-06
  5.0554E-06
  5.0554E-06
  5.0554E-06
  5.0554E-06
  5.0554E-06
  5.0554E-06
  5.0554E-06
  5.0554E-06
  1.8883E-05
  1.8883E-05
  1.8883E-05
  1.8883E-05
  1.8883E-05
  1.8883E-05
  1.8883E-05
  1.8883E-05
  1.8883E-05
  7.0535E-05
  7.0535E-05
  7.0535E-05
  7.0535E-05
  7.0535E-05
  7.0535E-05
  7.0535E-05
  7.0535E-05
  7.0535E-05
  2.6347E-04
  2.6347E-04
  2.6347E-04
  2.6347E-04
  2.6347E-04
  2.6347E-04
  2.6347E-04
  2.6347E-04
  2.6347E-04
  9.8412E-04
  9.8412E-04
  9.8412E-04
  9.8412E-04
  9.8412E-04
  9.8412E-04
  9.8412E-04
  9.8412E-04
  9.8412E-04
  3.6760E-03
  3.6760E-03
  3.6760E-03
  3.6760E-03
  3.6760E-03
  3.6760E-03
  3.6760E-03
  3.6760E-03
  3.6760E-03
  1.3731E-02
  1.3731E-02
  1.3731E-02
  1.3731E-02
  1.3731E-02
  1.3731E-02
  1.3731E-02
  1.3731E-02
  1.3731E-02
  5.1288E-02
  5.1288E-02
  5.1288E-02
  5.1288E-02
  5.1288E-02
  5.1288E-02
  5.1288E-02
  5.1288E-02
  5.1288E-02
  1.9158E-01
  1.9158E-01
  1.9158E-01
  1.9158E-01
  1.9158E-01
  1.9158E-01
  1.9158E-01
  1.9158E-01
  1.9158E-01
  7.1559E-01
  7.1559E-01
  7.1559E-01
  7.1559E-01
  7.1559E-01
  7.1559E-01
  7.1559E-01
  7.1559E-01
  7.1559E-01
  1.1289E+00
  1.1289E+00
  1.1289E+00
  1.1289E+00
  1.1289E+00
  1.1289E+00
  1.1289E+00
  1.1289E+00
  1.1289E+00
   2.5400E-02
  1.1118E-11
  1.1118E-11
  1.1118E-11
  1.1118E-11
  1.1118E-11
  1.1118E-11
  1.1118E-11
  1.1118E-11
  1.1118E-11
  3.3403E-11
  3.3403E-11
  3.3403E-11
  3.3403E-11
  3.3403E-11
  3.3403E-11
  3.3403E-11
  3.3403E-11
  3.3403E-11
  1.3375E-10
  1.3375E-10
  1.3375E-10
  1.3375E-10
  1.3375E-10
  1.3375E-10
  1.3375E-10
  1.3375E-10
  1.3375E-10
  5.0199E-10
  5.0199E-10
  5.0199E-10
  5.0199E-10
  5.0199E-10
  5.0199E-10
  5.0199E-10
  5.0199E-10
  5.0199E-10
  1.8757E-09
  1.8757E-09
  1.8757E-09
  1.8757E-09
  1.8757E-09
  1.8757E-09
  1.8757E-09
  1.8757E-09
  1.8757E-09
  7.0067E-09
  7.0067E-09
  7.0067E-09
  7.0067E-09
  7.0067E-09
  7.0067E-09
  7.0067E-09
  7.0067E-09
  7.0067E-09
  2.6172E-08
  2.6172E-08
  2.6172E-08
  2.6172E-08
  2.6172E-08
  2.6172E-08
  2.6172E-08
  2.6172E-08
  2.6172E-08
  9.7762E-08
  9.7762E-08
  9.7762E-08
  9.7762E-08
  9.7762E-08
  9.7762E-08
  9.7762E-08
  9.7762E-08
  9.7762E-08
  3.6517E-07
  3.6517E-07
  3.6517E-07
  3.6517E-07
  3.6517E-07
  3.6517E-07
  3.6517E-07
  3.6517E-07
  3.6517E-07
  1.3640E-06
  1.3640E-06
  1.3640E-06
  1.3640E-06
  1.3640E-06
  1.3640E-06
  1.3640E-06
  1.3640E-06
  1.3640E-06
  5.0951E-06
  5.0951E-06
  5.0951E-06
  5.0951E-06
  5.0951E-06
  5.0951E-06
  5.0951E-06
  5.0951E-06
  5.0951E-06
  1.9032E-05
  1.9032E-05
  1.9032E-05
  1.9032E-05
  1.9032E-05
  1.9032E-05
  1.9032E-05
  1.9032E-05
  1.9032E-05
  7.1089E-05
  7.1089E-05
  7.1089E-05
  7.1089E-05
  7.1089E-05
  7.1089E-05
  7.1089E-05
  7.1089E-05
  7.1089E-05
  2.6554E-04
  2.6554E-04
  2.6554E-04
  2.6554E-04
  2.6554E-04
  2.6554E-04
  2.6554E-04
  2.6554E-04
  2.6554E-04
  9.9188E-04
  9.9188E-04
  9.9188E-04
  9.9188E-04
  9.9188E-04
  9.9188E-04
  9.9188E-04
  9.9188E-04
  9.9188E-04
  3.7050E-03
  3.7050E-03
  3.7050E-03
  3.7050E-03
  3.7050E-03
  3.7050E-03
  3.7050E-03
  3.7050E-03
  3.7050E-03
  1.3839E-02
  1.3839E-02
  1.3839E-02
  1.3839E-02
  1.3839E-02
  1.3839E-02
  1.3839E-02
  1.3839E-02
  1.3839E-02
  5.1694E-02
  5.1694E-02
  5.1694E-02
  5.1694E-02
  5.1694E-02
  5.1694E-02
  5.1694E-02
  5.1694E-02
  5.1694E-02
  1.9309E-01
  1.9309E-01
  1.9309E-01
  1.9309E-01
  1.9309E-01
  1.9309E-01
  1.9309E-01
  1.9309E-01
  1.9309E-01
  7.2125E-01
  7.2125E-01
  7.2125E-01
  7.2125E-01
  7.2125E-01
  7.2125E-01
  7.2125E-01
  7.2125E-01
  7.2125E-01
  1.1379E+00
  1.1379E+00
  1.1379E+00
  1.1379E+00
  1.1379E+00
  1.1379E+00
  1.1379E+00
  1.1379E+00
  1.1379E+00
   2.5500E-02
  1.1204E-11
  1.1204E-11
  1.1204E-11
  1.1204E-11
  1.1204E-11
  1.1204E-11
  1.1204E-11
  1.1204E-11
  1.1204E-11
  3.3662E-11
  3.3662E-11
  3.3662E-11
  3.3662E-11
  3.3662E-11
  3.3662E-11
  3.3662E-11
  3.3662E-11
  3.3662E-11
  1.3479E-10
  1.3479E-10
  1.3479E-10
  1.3479E-10
  1.3479E-10
  1.3479E-10
  1.3479E-10
  1.3479E-10
  1.3479E-10
  5.0589E-10
  5.0589E-10
  5.0589E-10
  5.0589E-10
  5.0589E-10
  5.0589E-10
  5.0589E-10
  5.0589E-10
  5.0589E-10
  1.8903E-09
  1.8903E-09
  1.8903E-09
  1.8903E-09
  1.8903E-09
  1.8903E-09
  1.8903E-09
  1.8903E-09
  1.8903E-09
  7.0612E-09
  7.0612E-09
  7.0612E-09
  7.0612E-09
  7.0612E-09
  7.0612E-09
  7.0612E-09
  7.0612E-09
  7.0612E-09
  2.6376E-08
  2.6376E-08
  2.6376E-08
  2.6376E-08
  2.6376E-08
  2.6376E-08
  2.6376E-08
  2.6376E-08
  2.6376E-08
  9.8524E-08
  9.8524E-08
  9.8524E-08
  9.8524E-08
  9.8524E-08
  9.8524E-08
  9.8524E-08
  9.8524E-08
  9.8524E-08
  3.6802E-07
  3.6802E-07
  3.6802E-07
  3.6802E-07
  3.6802E-07
  3.6802E-07
  3.6802E-07
  3.6802E-07
  3.6802E-07
  1.3747E-06
  1.3747E-06
  1.3747E-06
  1.3747E-06
  1.3747E-06
  1.3747E-06
  1.3747E-06
  1.3747E-06
  1.3747E-06
  5.1349E-06
  5.1349E-06
  5.1349E-06
  5.1349E-06
  5.1349E-06
  5.1349E-06
  5.1349E-06
  5.1349E-06
  5.1349E-06
  1.9181E-05
  1.9181E-05
  1.9181E-05
  1.9181E-05
  1.9181E-05
  1.9181E-05
  1.9181E-05
  1.9181E-05
  1.9181E-05
  7.1646E-05
  7.1646E-05
  7.1646E-05
  7.1646E-05
  7.1646E-05
  7.1646E-05
  7.1646E-05
  7.1646E-05
  7.1646E-05
  2.6762E-04
  2.6762E-04
  2.6762E-04
  2.6762E-04
  2.6762E-04
  2.6762E-04
  2.6762E-04
  2.6762E-04
  2.6762E-04
  9.9966E-04
  9.9966E-04
  9.9966E-04
  9.9966E-04
  9.9966E-04
  9.9966E-04
  9.9966E-04
  9.9966E-04
  9.9966E-04
  3.7341E-03
  3.7341E-03
  3.7341E-03
  3.7341E-03
  3.7341E-03
  3.7341E-03
  3.7341E-03
  3.7341E-03
  3.7341E-03
  1.3948E-02
  1.3948E-02
  1.3948E-02
  1.3948E-02
  1.3948E-02
  1.3948E-02
  1.3948E-02
  1.3948E-02
  1.3948E-02
  5.2100E-02
  5.2100E-02
  5.2100E-02
  5.2100E-02
  5.2100E-02
  5.2100E-02
  5.2100E-02
  5.2100E-02
  5.2100E-02
  1.9461E-01
  1.9461E-01
  1.9461E-01
  1.9461E-01
  1.9461E-01
  1.9461E-01
  1.9461E-01
  1.9461E-01
  1.9461E-01
  7.2694E-01
  7.2694E-01
  7.2694E-01
  7.2694E-01
  7.2694E-01
  7.2694E-01
  7.2694E-01
  7.2694E-01
  7.2694E-01
  1.1469E+00
  1.1469E+00
  1.1469E+00
  1.1469E+00
  1.1469E+00
  1.1469E+00
  1.1469E+00
  1.1469E+00
  1.1469E+00
   2.5600E-02
  1.1291E-11
  1.1291E-11
  1.1291E-11
  1.1291E-11
  1.1291E-11
  1.1291E-11
  1.1291E-11
  1.1291E-11
  1.1291E-11
  3.3922E-11
  3.3922E-11
  3.3922E-11
  3.3922E-11
  3.3922E-11
  3.3922E-11
  3.3922E-11
  3.3922E-11
  3.3922E-11
  1.3583E-10
  1.3583E-10
  1.3583E-10
  1.3583E-10
  1.3583E-10
  1.3583E-10
  1.3583E-10
  1.3583E-10
  1.3583E-10
  5.0981E-10
  5.0981E-10
  5.0981E-10
  5.0981E-10
  5.0981E-10
  5.0981E-10
  5.0981E-10
  5.0981E-10
  5.0981E-10
  1.9050E-09
  1.9050E-09
  1.9050E-09
  1.9050E-09
  1.9050E-09
  1.9050E-09
  1.9050E-09
  1.9050E-09
  1.9050E-09
  7.1160E-09
  7.1160E-09
  7.1160E-09
  7.1160E-09
  7.1160E-09
  7.1160E-09
  7.1160E-09
  7.1160E-09
  7.1160E-09
  2.6581E-08
  2.6581E-08
  2.6581E-08
  2.6581E-08
  2.6581E-08
  2.6581E-08
  2.6581E-08
  2.6581E-08
  2.6581E-08
  9.9290E-08
  9.9290E-08
  9.9290E-08
  9.9290E-08
  9.9290E-08
  9.9290E-08
  9.9290E-08
  9.9290E-08
  9.9290E-08
  3.7088E-07
  3.7088E-07
  3.7088E-07
  3.7088E-07
  3.7088E-07
  3.7088E-07
  3.7088E-07
  3.7088E-07
  3.7088E-07
  1.3854E-06
  1.3854E-06
  1.3854E-06
  1.3854E-06
  1.3854E-06
  1.3854E-06
  1.3854E-06
  1.3854E-06
  1.3854E-06
  5.1749E-06
  5.1749E-06
  5.1749E-06
  5.1749E-06
  5.1749E-06
  5.1749E-06
  5.1749E-06
  5.1749E-06
  5.1749E-06
  1.9330E-05
  1.9330E-05
  1.9330E-05
  1.9330E-05
  1.9330E-05
  1.9330E-05
  1.9330E-05
  1.9330E-05
  1.9330E-05
  7.2206E-05
  7.2206E-05
  7.2206E-05
  7.2206E-05
  7.2206E-05
  7.2206E-05
  7.2206E-05
  7.2206E-05
  7.2206E-05
  2.6971E-04
  2.6971E-04
  2.6971E-04
  2.6971E-04
  2.6971E-04
  2.6971E-04
  2.6971E-04
  2.6971E-04
  2.6971E-04
  1.0075E-03
  1.0075E-03
  1.0075E-03
  1.0075E-03
  1.0075E-03
  1.0075E-03
  1.0075E-03
  1.0075E-03
  1.0075E-03
  3.7633E-03
  3.7633E-03
  3.7633E-03
  3.7633E-03
  3.7633E-03
  3.7633E-03
  3.7633E-03
  3.7633E-03
  3.7633E-03
  1.4057E-02
  1.4057E-02
  1.4057E-02
  1.4057E-02
  1.4057E-02
  1.4057E-02
  1.4057E-02
  1.4057E-02
  1.4057E-02
  5.2509E-02
  5.2509E-02
  5.2509E-02
  5.2509E-02
  5.2509E-02
  5.2509E-02
  5.2509E-02
  5.2509E-02
  5.2509E-02
  1.9614E-01
  1.9614E-01
  1.9614E-01
  1.9614E-01
  1.9614E-01
  1.9614E-01
  1.9614E-01
  1.9614E-01
  1.9614E-01
  7.3265E-01
  7.3265E-01
  7.3265E-01
  7.3265E-01
  7.3265E-01
  7.3265E-01
  7.3265E-01
  7.3265E-01
  7.3265E-01
  1.1559E+00
  1.1559E+00
  1.1559E+00
  1.1559E+00
  1.1559E+00
  1.1559E+00
  1.1559E+00
  1.1559E+00
  1.1559E+00
   2.5700E-02
  1.1377E-11
  1.1377E-11
  1.1377E-11
  1.1377E-11
  1.1377E-11
  1.1377E-11
  1.1377E-11
  1.1377E-11
  1.1377E-11
  3.4183E-11
  3.4183E-11
  3.4183E-11
  3.4183E-11
  3.4183E-11
  3.4183E-11
  3.4183E-11
  3.4183E-11
  3.4183E-11
  1.3687E-10
  1.3687E-10
  1.3687E-10
  1.3687E-10
  1.3687E-10
  1.3687E-10
  1.3687E-10
  1.3687E-10
  1.3687E-10
  5.1374E-10
  5.1374E-10
  5.1374E-10
  5.1374E-10
  5.1374E-10
  5.1374E-10
  5.1374E-10
  5.1374E-10
  5.1374E-10
  1.9197E-09
  1.9197E-09
  1.9197E-09
  1.9197E-09
  1.9197E-09
  1.9197E-09
  1.9197E-09
  1.9197E-09
  1.9197E-09
  7.1709E-09
  7.1709E-09
  7.1709E-09
  7.1709E-09
  7.1709E-09
  7.1709E-09
  7.1709E-09
  7.1709E-09
  7.1709E-09
  2.6786E-08
  2.6786E-08
  2.6786E-08
  2.6786E-08
  2.6786E-08
  2.6786E-08
  2.6786E-08
  2.6786E-08
  2.6786E-08
  1.0006E-07
  1.0006E-07
  1.0006E-07
  1.0006E-07
  1.0006E-07
  1.0006E-07
  1.0006E-07
  1.0006E-07
  1.0006E-07
  3.7376E-07
  3.7376E-07
  3.7376E-07
  3.7376E-07
  3.7376E-07
  3.7376E-07
  3.7376E-07
  3.7376E-07
  3.7376E-07
  1.3961E-06
  1.3961E-06
  1.3961E-06
  1.3961E-06
  1.3961E-06
  1.3961E-06
  1.3961E-06
  1.3961E-06
  1.3961E-06
  5.2151E-06
  5.2151E-06
  5.2151E-06
  5.2151E-06
  5.2151E-06
  5.2151E-06
  5.2151E-06
  5.2151E-06
  5.2151E-06
  1.9480E-05
  1.9480E-05
  1.9480E-05
  1.9480E-05
  1.9480E-05
  1.9480E-05
  1.9480E-05
  1.9480E-05
  1.9480E-05
  7.2767E-05
  7.2767E-05
  7.2767E-05
  7.2767E-05
  7.2767E-05
  7.2767E-05
  7.2767E-05
  7.2767E-05
  7.2767E-05
  2.7181E-04
  2.7181E-04
  2.7181E-04
  2.7181E-04
  2.7181E-04
  2.7181E-04
  2.7181E-04
  2.7181E-04
  2.7181E-04
  1.0153E-03
  1.0153E-03
  1.0153E-03
  1.0153E-03
  1.0153E-03
  1.0153E-03
  1.0153E-03
  1.0153E-03
  1.0153E-03
  3.7926E-03
  3.7926E-03
  3.7926E-03
  3.7926E-03
  3.7926E-03
  3.7926E-03
  3.7926E-03
  3.7926E-03
  3.7926E-03
  1.4167E-02
  1.4167E-02
  1.4167E-02
  1.4167E-02
  1.4167E-02
  1.4167E-02
  1.4167E-02
  1.4167E-02
  1.4167E-02
  5.2919E-02
  5.2919E-02
  5.2919E-02
  5.2919E-02
  5.2919E-02
  5.2919E-02
  5.2919E-02
  5.2919E-02
  5.2919E-02
  1.9767E-01
  1.9767E-01
  1.9767E-01
  1.9767E-01
  1.9767E-01
  1.9767E-01
  1.9767E-01
  1.9767E-01
  1.9767E-01
  7.3838E-01
  7.3838E-01
  7.3838E-01
  7.3838E-01
  7.3838E-01
  7.3838E-01
  7.3838E-01
  7.3838E-01
  7.3838E-01
  1.1649E+00
  1.1649E+00
  1.1649E+00
  1.1649E+00
  1.1649E+00
  1.1649E+00
  1.1649E+00
  1.1649E+00
  1.1649E+00
   2.5800E-02
  1.1464E-11
  1.1464E-11
  1.1464E-11
  1.1464E-11
  1.1464E-11
  1.1464E-11
  1.1464E-11
  1.1464E-11
  1.1464E-11
  3.4445E-11
  3.4445E-11
  3.4445E-11
  3.4445E-11
  3.4445E-11
  3.4445E-11
  3.4445E-11
  3.4445E-11
  3.4445E-11
  1.3792E-10
  1.3792E-10
  1.3792E-10
  1.3792E-10
  1.3792E-10
  1.3792E-10
  1.3792E-10
  1.3792E-10
  1.3792E-10
  5.1768E-10
  5.1768E-10
  5.1768E-10
  5.1768E-10
  5.1768E-10
  5.1768E-10
  5.1768E-10
  5.1768E-10
  5.1768E-10
  1.9344E-09
  1.9344E-09
  1.9344E-09
  1.9344E-09
  1.9344E-09
  1.9344E-09
  1.9344E-09
  1.9344E-09
  1.9344E-09
  7.2261E-09
  7.2261E-09
  7.2261E-09
  7.2261E-09
  7.2261E-09
  7.2261E-09
  7.2261E-09
  7.2261E-09
  7.2261E-09
  2.6993E-08
  2.6993E-08
  2.6993E-08
  2.6993E-08
  2.6993E-08
  2.6993E-08
  2.6993E-08
  2.6993E-08
  2.6993E-08
  1.0083E-07
  1.0083E-07
  1.0083E-07
  1.0083E-07
  1.0083E-07
  1.0083E-07
  1.0083E-07
  1.0083E-07
  1.0083E-07
  3.7664E-07
  3.7664E-07
  3.7664E-07
  3.7664E-07
  3.7664E-07
  3.7664E-07
  3.7664E-07
  3.7664E-07
  3.7664E-07
  1.4069E-06
  1.4069E-06
  1.4069E-06
  1.4069E-06
  1.4069E-06
  1.4069E-06
  1.4069E-06
  1.4069E-06
  1.4069E-06
  5.2554E-06
  5.2554E-06
  5.2554E-06
  5.2554E-06
  5.2554E-06
  5.2554E-06
  5.2554E-06
  5.2554E-06
  5.2554E-06
  1.9631E-05
  1.9631E-05
  1.9631E-05
  1.9631E-05
  1.9631E-05
  1.9631E-05
  1.9631E-05
  1.9631E-05
  1.9631E-05
  7.3330E-05
  7.3330E-05
  7.3330E-05
  7.3330E-05
  7.3330E-05
  7.3330E-05
  7.3330E-05
  7.3330E-05
  7.3330E-05
  2.7392E-04
  2.7392E-04
  2.7392E-04
  2.7392E-04
  2.7392E-04
  2.7392E-04
  2.7392E-04
  2.7392E-04
  2.7392E-04
  1.0232E-03
  1.0232E-03
  1.0232E-03
  1.0232E-03
  1.0232E-03
  1.0232E-03
  1.0232E-03
  1.0232E-03
  1.0232E-03
  3.8221E-03
  3.8221E-03
  3.8221E-03
  3.8221E-03
  3.8221E-03
  3.8221E-03
  3.8221E-03
  3.8221E-03
  3.8221E-03
  1.4277E-02
  1.4277E-02
  1.4277E-02
  1.4277E-02
  1.4277E-02
  1.4277E-02
  1.4277E-02
  1.4277E-02
  1.4277E-02
  5.3330E-02
  5.3330E-02
  5.3330E-02
  5.3330E-02
  5.3330E-02
  5.3330E-02
  5.3330E-02
  5.3330E-02
  5.3330E-02
  1.9921E-01
  1.9921E-01
  1.9921E-01
  1.9921E-01
  1.9921E-01
  1.9921E-01
  1.9921E-01
  1.9921E-01
  1.9921E-01
  7.4413E-01
  7.4413E-01
  7.4413E-01
  7.4413E-01
  7.4413E-01
  7.4413E-01
  7.4413E-01
  7.4413E-01
  7.4413E-01
  1.1740E+00
  1.1740E+00
  1.1740E+00
  1.1740E+00
  1.1740E+00
  1.1740E+00
  1.1740E+00
  1.1740E+00
  1.1740E+00
   2.5900E-02
  1.1552E-11
  1.1552E-11
  1.1552E-11
  1.1552E-11
  1.1552E-11
  1.1552E-11
  1.1552E-11
  1.1552E-11
  1.1552E-11
  3.4708E-11
  3.4708E-11
  3.4708E-11
  3.4708E-11
  3.4708E-11
  3.4708E-11
  3.4708E-11
  3.4708E-11
  3.4708E-11
  1.3898E-10
  1.3898E-10
  1.3898E-10
  1.3898E-10
  1.3898E-10
  1.3898E-10
  1.3898E-10
  1.3898E-10
  1.3898E-10
  5.2164E-10
  5.2164E-10
  5.2164E-10
  5.2164E-10
  5.2164E-10
  5.2164E-10
  5.2164E-10
  5.2164E-10
  5.2164E-10
  1.9492E-09
  1.9492E-09
  1.9492E-09
  1.9492E-09
  1.9492E-09
  1.9492E-09
  1.9492E-09
  1.9492E-09
  1.9492E-09
  7.2815E-09
  7.2815E-09
  7.2815E-09
  7.2815E-09
  7.2815E-09
  7.2815E-09
  7.2815E-09
  7.2815E-09
  7.2815E-09
  2.7200E-08
  2.7200E-08
  2.7200E-08
  2.7200E-08
  2.7200E-08
  2.7200E-08
  2.7200E-08
  2.7200E-08
  2.7200E-08
  1.0160E-07
  1.0160E-07
  1.0160E-07
  1.0160E-07
  1.0160E-07
  1.0160E-07
  1.0160E-07
  1.0160E-07
  1.0160E-07
  3.7953E-07
  3.7953E-07
  3.7953E-07
  3.7953E-07
  3.7953E-07
  3.7953E-07
  3.7953E-07
  3.7953E-07
  3.7953E-07
  1.4177E-06
  1.4177E-06
  1.4177E-06
  1.4177E-06
  1.4177E-06
  1.4177E-06
  1.4177E-06
  1.4177E-06
  1.4177E-06
  5.2958E-06
  5.2958E-06
  5.2958E-06
  5.2958E-06
  5.2958E-06
  5.2958E-06
  5.2958E-06
  5.2958E-06
  5.2958E-06
  1.9782E-05
  1.9782E-05
  1.9782E-05
  1.9782E-05
  1.9782E-05
  1.9782E-05
  1.9782E-05
  1.9782E-05
  1.9782E-05
  7.3896E-05
  7.3896E-05
  7.3896E-05
  7.3896E-05
  7.3896E-05
  7.3896E-05
  7.3896E-05
  7.3896E-05
  7.3896E-05
  2.7603E-04
  2.7603E-04
  2.7603E-04
  2.7603E-04
  2.7603E-04
  2.7603E-04
  2.7603E-04
  2.7603E-04
  2.7603E-04
  1.0311E-03
  1.0311E-03
  1.0311E-03
  1.0311E-03
  1.0311E-03
  1.0311E-03
  1.0311E-03
  1.0311E-03
  1.0311E-03
  3.8516E-03
  3.8516E-03
  3.8516E-03
  3.8516E-03
  3.8516E-03
  3.8516E-03
  3.8516E-03
  3.8516E-03
  3.8516E-03
  1.4387E-02
  1.4387E-02
  1.4387E-02
  1.4387E-02
  1.4387E-02
  1.4387E-02
  1.4387E-02
  1.4387E-02
  1.4387E-02
  5.3744E-02
  5.3744E-02
  5.3744E-02
  5.3744E-02
  5.3744E-02
  5.3744E-02
  5.3744E-02
  5.3744E-02
  5.3744E-02
  2.0076E-01
  2.0076E-01
  2.0076E-01
  2.0076E-01
  2.0076E-01
  2.0076E-01
  2.0076E-01
  2.0076E-01
  2.0076E-01
  7.4991E-01
  7.4991E-01
  7.4991E-01
  7.4991E-01
  7.4991E-01
  7.4991E-01
  7.4991E-01
  7.4991E-01
  7.4991E-01
  1.1831E+00
  1.1831E+00
  1.1831E+00
  1.1831E+00
  1.1831E+00
  1.1831E+00
  1.1831E+00
  1.1831E+00
  1.1831E+00
   2.6000E-02
  1.1640E-11
  1.1640E-11
  1.1640E-11
  1.1640E-11
  1.1640E-11
  1.1640E-11
  1.1640E-11
  1.1640E-11
  1.1640E-11
  3.4972E-11
  3.4972E-11
  3.4972E-11
  3.4972E-11
  3.4972E-11
  3.4972E-11
  3.4972E-11
  3.4972E-11
  3.4972E-11
  1.4004E-10
  1.4004E-10
  1.4004E-10
  1.4004E-10
  1.4004E-10
  1.4004E-10
  1.4004E-10
  1.4004E-10
  1.4004E-10
  5.2562E-10
  5.2562E-10
  5.2562E-10
  5.2562E-10
  5.2562E-10
  5.2562E-10
  5.2562E-10
  5.2562E-10
  5.2562E-10
  1.9641E-09
  1.9641E-09
  1.9641E-09
  1.9641E-09
  1.9641E-09
  1.9641E-09
  1.9641E-09
  1.9641E-09
  1.9641E-09
  7.3370E-09
  7.3370E-09
  7.3370E-09
  7.3370E-09
  7.3370E-09
  7.3370E-09
  7.3370E-09
  7.3370E-09
  7.3370E-09
  2.7407E-08
  2.7407E-08
  2.7407E-08
  2.7407E-08
  2.7407E-08
  2.7407E-08
  2.7407E-08
  2.7407E-08
  2.7407E-08
  1.0238E-07
  1.0238E-07
  1.0238E-07
  1.0238E-07
  1.0238E-07
  1.0238E-07
  1.0238E-07
  1.0238E-07
  1.0238E-07
  3.8244E-07
  3.8244E-07
  3.8244E-07
  3.8244E-07
  3.8244E-07
  3.8244E-07
  3.8244E-07
  3.8244E-07
  3.8244E-07
  1.4286E-06
  1.4286E-06
  1.4286E-06
  1.4286E-06
  1.4286E-06
  1.4286E-06
  1.4286E-06
  1.4286E-06
  1.4286E-06
  5.3364E-06
  5.3364E-06
  5.3364E-06
  5.3364E-06
  5.3364E-06
  5.3364E-06
  5.3364E-06
  5.3364E-06
  5.3364E-06
  1.9934E-05
  1.9934E-05
  1.9934E-05
  1.9934E-05
  1.9934E-05
  1.9934E-05
  1.9934E-05
  1.9934E-05
  1.9934E-05
  7.4463E-05
  7.4463E-05
  7.4463E-05
  7.4463E-05
  7.4463E-05
  7.4463E-05
  7.4463E-05
  7.4463E-05
  7.4463E-05
  2.7816E-04
  2.7816E-04
  2.7816E-04
  2.7816E-04
  2.7816E-04
  2.7816E-04
  2.7816E-04
  2.7816E-04
  2.7816E-04
  1.0390E-03
  1.0390E-03
  1.0390E-03
  1.0390E-03
  1.0390E-03
  1.0390E-03
  1.0390E-03
  1.0390E-03
  1.0390E-03
  3.8813E-03
  3.8813E-03
  3.8813E-03
  3.8813E-03
  3.8813E-03
  3.8813E-03
  3.8813E-03
  3.8813E-03
  3.8813E-03
  1.4498E-02
  1.4498E-02
  1.4498E-02
  1.4498E-02
  1.4498E-02
  1.4498E-02
  1.4498E-02
  1.4498E-02
  1.4498E-02
  5.4158E-02
  5.4158E-02
  5.4158E-02
  5.4158E-02
  5.4158E-02
  5.4158E-02
  5.4158E-02
  5.4158E-02
  5.4158E-02
  2.0231E-01
  2.0231E-01
  2.0231E-01
  2.0231E-01
  2.0231E-01
  2.0231E-01
  2.0231E-01
  2.0231E-01
  2.0231E-01
  7.5571E-01
  7.5571E-01
  7.5571E-01
  7.5571E-01
  7.5571E-01
  7.5571E-01
  7.5571E-01
  7.5571E-01
  7.5571E-01
  1.1922E+00
  1.1922E+00
  1.1922E+00
  1.1922E+00
  1.1922E+00
  1.1922E+00
  1.1922E+00
  1.1922E+00
  1.1922E+00
   2.6100E-02
  1.1728E-11
  1.1728E-11
  1.1728E-11
  1.1728E-11
  1.1728E-11
  1.1728E-11
  1.1728E-11
  1.1728E-11
  1.1728E-11
  3.5237E-11
  3.5237E-11
  3.5237E-11
  3.5237E-11
  3.5237E-11
  3.5237E-11
  3.5237E-11
  3.5237E-11
  3.5237E-11
  1.4110E-10
  1.4110E-10
  1.4110E-10
  1.4110E-10
  1.4110E-10
  1.4110E-10
  1.4110E-10
  1.4110E-10
  1.4110E-10
  5.2960E-10
  5.2960E-10
  5.2960E-10
  5.2960E-10
  5.2960E-10
  5.2960E-10
  5.2960E-10
  5.2960E-10
  5.2960E-10
  1.9790E-09
  1.9790E-09
  1.9790E-09
  1.9790E-09
  1.9790E-09
  1.9790E-09
  1.9790E-09
  1.9790E-09
  1.9790E-09
  7.3928E-09
  7.3928E-09
  7.3928E-09
  7.3928E-09
  7.3928E-09
  7.3928E-09
  7.3928E-09
  7.3928E-09
  7.3928E-09
  2.7616E-08
  2.7616E-08
  2.7616E-08
  2.7616E-08
  2.7616E-08
  2.7616E-08
  2.7616E-08
  2.7616E-08
  2.7616E-08
  1.0316E-07
  1.0316E-07
  1.0316E-07
  1.0316E-07
  1.0316E-07
  1.0316E-07
  1.0316E-07
  1.0316E-07
  1.0316E-07
  3.8535E-07
  3.8535E-07
  3.8535E-07
  3.8535E-07
  3.8535E-07
  3.8535E-07
  3.8535E-07
  3.8535E-07
  3.8535E-07
  1.4395E-06
  1.4395E-06
  1.4395E-06
  1.4395E-06
  1.4395E-06
  1.4395E-06
  1.4395E-06
  1.4395E-06
  1.4395E-06
  5.3772E-06
  5.3772E-06
  5.3772E-06
  5.3772E-06
  5.3772E-06
  5.3772E-06
  5.3772E-06
  5.3772E-06
  5.3772E-06
  2.0087E-05
  2.0087E-05
  2.0087E-05
  2.0087E-05
  2.0087E-05
  2.0087E-05
  2.0087E-05
  2.0087E-05
  2.0087E-05
  7.5033E-05
  7.5033E-05
  7.5033E-05
  7.5033E-05
  7.5033E-05
  7.5033E-05
  7.5033E-05
  7.5033E-05
  7.5033E-05
  2.8029E-04
  2.8029E-04
  2.8029E-04
  2.8029E-04
  2.8029E-04
  2.8029E-04
  2.8029E-04
  2.8029E-04
  2.8029E-04
  1.0470E-03
  1.0470E-03
  1.0470E-03
  1.0470E-03
  1.0470E-03
  1.0470E-03
  1.0470E-03
  1.0470E-03
  1.0470E-03
  3.9111E-03
  3.9111E-03
  3.9111E-03
  3.9111E-03
  3.9111E-03
  3.9111E-03
  3.9111E-03
  3.9111E-03
  3.9111E-03
  1.4610E-02
  1.4610E-02
  1.4610E-02
  1.4610E-02
  1.4610E-02
  1.4610E-02
  1.4610E-02
  1.4610E-02
  1.4610E-02
  5.4575E-02
  5.4575E-02
  5.4575E-02
  5.4575E-02
  5.4575E-02
  5.4575E-02
  5.4575E-02
  5.4575E-02
  5.4575E-02
  2.0386E-01
  2.0386E-01
  2.0386E-01
  2.0386E-01
  2.0386E-01
  2.0386E-01
  2.0386E-01
  2.0386E-01
  2.0386E-01
  7.6152E-01
  7.6152E-01
  7.6152E-01
  7.6152E-01
  7.6152E-01
  7.6152E-01
  7.6152E-01
  7.6152E-01
  7.6152E-01
  1.2014E+00
  1.2014E+00
  1.2014E+00
  1.2014E+00
  1.2014E+00
  1.2014E+00
  1.2014E+00
  1.2014E+00
  1.2014E+00
   2.6200E-02
  1.1816E-11
  1.1816E-11
  1.1816E-11
  1.1816E-11
  1.1816E-11
  1.1816E-11
  1.1816E-11
  1.1816E-11
  1.1816E-11
  3.5503E-11
  3.5503E-11
  3.5503E-11
  3.5503E-11
  3.5503E-11
  3.5503E-11
  3.5503E-11
  3.5503E-11
  3.5503E-11
  1.4216E-10
  1.4216E-10
  1.4216E-10
  1.4216E-10
  1.4216E-10
  1.4216E-10
  1.4216E-10
  1.4216E-10
  1.4216E-10
  5.3361E-10
  5.3361E-10
  5.3361E-10
  5.3361E-10
  5.3361E-10
  5.3361E-10
  5.3361E-10
  5.3361E-10
  5.3361E-10
  1.9940E-09
  1.9940E-09
  1.9940E-09
  1.9940E-09
  1.9940E-09
  1.9940E-09
  1.9940E-09
  1.9940E-09
  1.9940E-09
  7.4488E-09
  7.4488E-09
  7.4488E-09
  7.4488E-09
  7.4488E-09
  7.4488E-09
  7.4488E-09
  7.4488E-09
  7.4488E-09
  2.7825E-08
  2.7825E-08
  2.7825E-08
  2.7825E-08
  2.7825E-08
  2.7825E-08
  2.7825E-08
  2.7825E-08
  2.7825E-08
  1.0394E-07
  1.0394E-07
  1.0394E-07
  1.0394E-07
  1.0394E-07
  1.0394E-07
  1.0394E-07
  1.0394E-07
  1.0394E-07
  3.8828E-07
  3.8828E-07
  3.8828E-07
  3.8828E-07
  3.8828E-07
  3.8828E-07
  3.8828E-07
  3.8828E-07
  3.8828E-07
  1.4504E-06
  1.4504E-06
  1.4504E-06
  1.4504E-06
  1.4504E-06
  1.4504E-06
  1.4504E-06
  1.4504E-06
  1.4504E-06
  5.4181E-06
  5.4181E-06
  5.4181E-06
  5.4181E-06
  5.4181E-06
  5.4181E-06
  5.4181E-06
  5.4181E-06
  5.4181E-06
  2.0239E-05
  2.0239E-05
  2.0239E-05
  2.0239E-05
  2.0239E-05
  2.0239E-05
  2.0239E-05
  2.0239E-05
  2.0239E-05
  7.5605E-05
  7.5605E-05
  7.5605E-05
  7.5605E-05
  7.5605E-05
  7.5605E-05
  7.5605E-05
  7.5605E-05
  7.5605E-05
  2.8242E-04
  2.8242E-04
  2.8242E-04
  2.8242E-04
  2.8242E-04
  2.8242E-04
  2.8242E-04
  2.8242E-04
  2.8242E-04
  1.0550E-03
  1.0550E-03
  1.0550E-03
  1.0550E-03
  1.0550E-03
  1.0550E-03
  1.0550E-03
  1.0550E-03
  1.0550E-03
  3.9410E-03
  3.9410E-03
  3.9410E-03
  3.9410E-03
  3.9410E-03
  3.9410E-03
  3.9410E-03
  3.9410E-03
  3.9410E-03
  1.4722E-02
  1.4722E-02
  1.4722E-02
  1.4722E-02
  1.4722E-02
  1.4722E-02
  1.4722E-02
  1.4722E-02
  1.4722E-02
  5.4992E-02
  5.4992E-02
  5.4992E-02
  5.4992E-02
  5.4992E-02
  5.4992E-02
  5.4992E-02
  5.4992E-02
  5.4992E-02
  2.0543E-01
  2.0543E-01
  2.0543E-01
  2.0543E-01
  2.0543E-01
  2.0543E-01
  2.0543E-01
  2.0543E-01
  2.0543E-01
  7.6737E-01
  7.6737E-01
  7.6737E-01
  7.6737E-01
  7.6737E-01
  7.6737E-01
  7.6737E-01
  7.6737E-01
  7.6737E-01
  1.2106E+00
  1.2106E+00
  1.2106E+00
  1.2106E+00
  1.2106E+00
  1.2106E+00
  1.2106E+00
  1.2106E+00
  1.2106E+00
   2.6300E-02
  1.1904E-11
  1.1904E-11
  1.1904E-11
  1.1904E-11
  1.1904E-11
  1.1904E-11
  1.1904E-11
  1.1904E-11
  1.1904E-11
  3.5769E-11
  3.5769E-11
  3.5769E-11
  3.5769E-11
  3.5769E-11
  3.5769E-11
  3.5769E-11
  3.5769E-11
  3.5769E-11
  1.4323E-10
  1.4323E-10
  1.4323E-10
  1.4323E-10
  1.4323E-10
  1.4323E-10
  1.4323E-10
  1.4323E-10
  1.4323E-10
  5.3762E-10
  5.3762E-10
  5.3762E-10
  5.3762E-10
  5.3762E-10
  5.3762E-10
  5.3762E-10
  5.3762E-10
  5.3762E-10
  2.0090E-09
  2.0090E-09
  2.0090E-09
  2.0090E-09
  2.0090E-09
  2.0090E-09
  2.0090E-09
  2.0090E-09
  2.0090E-09
  7.5050E-09
  7.5050E-09
  7.5050E-09
  7.5050E-09
  7.5050E-09
  7.5050E-09
  7.5050E-09
  7.5050E-09
  7.5050E-09
  2.8035E-08
  2.8035E-08
  2.8035E-08
  2.8035E-08
  2.8035E-08
  2.8035E-08
  2.8035E-08
  2.8035E-08
  2.8035E-08
  1.0473E-07
  1.0473E-07
  1.0473E-07
  1.0473E-07
  1.0473E-07
  1.0473E-07
  1.0473E-07
  1.0473E-07
  1.0473E-07
  3.9122E-07
  3.9122E-07
  3.9122E-07
  3.9122E-07
  3.9122E-07
  3.9122E-07
  3.9122E-07
  3.9122E-07
  3.9122E-07
  1.4614E-06
  1.4614E-06
  1.4614E-06
  1.4614E-06
  1.4614E-06
  1.4614E-06
  1.4614E-06
  1.4614E-06
  1.4614E-06
  5.4592E-06
  5.4592E-06
  5.4592E-06
  5.4592E-06
  5.4592E-06
  5.4592E-06
  5.4592E-06
  5.4592E-06
  5.4592E-06
  2.0393E-05
  2.0393E-05
  2.0393E-05
  2.0393E-05
  2.0393E-05
  2.0393E-05
  2.0393E-05
  2.0393E-05
  2.0393E-05
  7.6179E-05
  7.6179E-05
  7.6179E-05
  7.6179E-05
  7.6179E-05
  7.6179E-05
  7.6179E-05
  7.6179E-05
  7.6179E-05
  2.8457E-04
  2.8457E-04
  2.8457E-04
  2.8457E-04
  2.8457E-04
  2.8457E-04
  2.8457E-04
  2.8457E-04
  2.8457E-04
  1.0630E-03
  1.0630E-03
  1.0630E-03
  1.0630E-03
  1.0630E-03
  1.0630E-03
  1.0630E-03
  1.0630E-03
  1.0630E-03
  3.9710E-03
  3.9710E-03
  3.9710E-03
  3.9710E-03
  3.9710E-03
  3.9710E-03
  3.9710E-03
  3.9710E-03
  3.9710E-03
  1.4834E-02
  1.4834E-02
  1.4834E-02
  1.4834E-02
  1.4834E-02
  1.4834E-02
  1.4834E-02
  1.4834E-02
  1.4834E-02
  5.5412E-02
  5.5412E-02
  5.5412E-02
  5.5412E-02
  5.5412E-02
  5.5412E-02
  5.5412E-02
  5.5412E-02
  5.5412E-02
  2.0699E-01
  2.0699E-01
  2.0699E-01
  2.0699E-01
  2.0699E-01
  2.0699E-01
  2.0699E-01
  2.0699E-01
  2.0699E-01
  7.7323E-01
  7.7323E-01
  7.7323E-01
  7.7323E-01
  7.7323E-01
  7.7323E-01
  7.7323E-01
  7.7323E-01
  7.7323E-01
  1.2199E+00
  1.2199E+00
  1.2199E+00
  1.2199E+00
  1.2199E+00
  1.2199E+00
  1.2199E+00
  1.2199E+00
  1.2199E+00
   2.6400E-02
  1.1993E-11
  1.1993E-11
  1.1993E-11
  1.1993E-11
  1.1993E-11
  1.1993E-11
  1.1993E-11
  1.1993E-11
  1.1993E-11
  3.6037E-11
  3.6037E-11
  3.6037E-11
  3.6037E-11
  3.6037E-11
  3.6037E-11
  3.6037E-11
  3.6037E-11
  3.6037E-11
  1.4430E-10
  1.4430E-10
  1.4430E-10
  1.4430E-10
  1.4430E-10
  1.4430E-10
  1.4430E-10
  1.4430E-10
  1.4430E-10
  5.4165E-10
  5.4165E-10
  5.4165E-10
  5.4165E-10
  5.4165E-10
  5.4165E-10
  5.4165E-10
  5.4165E-10
  5.4165E-10
  2.0241E-09
  2.0241E-09
  2.0241E-09
  2.0241E-09
  2.0241E-09
  2.0241E-09
  2.0241E-09
  2.0241E-09
  2.0241E-09
  7.5613E-09
  7.5613E-09
  7.5613E-09
  7.5613E-09
  7.5613E-09
  7.5613E-09
  7.5613E-09
  7.5613E-09
  7.5613E-09
  2.8246E-08
  2.8246E-08
  2.8246E-08
  2.8246E-08
  2.8246E-08
  2.8246E-08
  2.8246E-08
  2.8246E-08
  2.8246E-08
  1.0552E-07
  1.0552E-07
  1.0552E-07
  1.0552E-07
  1.0552E-07
  1.0552E-07
  1.0552E-07
  1.0552E-07
  1.0552E-07
  3.9416E-07
  3.9416E-07
  3.9416E-07
  3.9416E-07
  3.9416E-07
  3.9416E-07
  3.9416E-07
  3.9416E-07
  3.9416E-07
  1.4724E-06
  1.4724E-06
  1.4724E-06
  1.4724E-06
  1.4724E-06
  1.4724E-06
  1.4724E-06
  1.4724E-06
  1.4724E-06
  5.5004E-06
  5.5004E-06
  5.5004E-06
  5.5004E-06
  5.5004E-06
  5.5004E-06
  5.5004E-06
  5.5004E-06
  5.5004E-06
  2.0547E-05
  2.0547E-05
  2.0547E-05
  2.0547E-05
  2.0547E-05
  2.0547E-05
  2.0547E-05
  2.0547E-05
  2.0547E-05
  7.6755E-05
  7.6755E-05
  7.6755E-05
  7.6755E-05
  7.6755E-05
  7.6755E-05
  7.6755E-05
  7.6755E-05
  7.6755E-05
  2.8672E-04
  2.8672E-04
  2.8672E-04
  2.8672E-04
  2.8672E-04
  2.8672E-04
  2.8672E-04
  2.8672E-04
  2.8672E-04
  1.0711E-03
  1.0711E-03
  1.0711E-03
  1.0711E-03
  1.0711E-03
  1.0711E-03
  1.0711E-03
  1.0711E-03
  1.0711E-03
  4.0011E-03
  4.0011E-03
  4.0011E-03
  4.0011E-03
  4.0011E-03
  4.0011E-03
  4.0011E-03
  4.0011E-03
  4.0011E-03
  1.4946E-02
  1.4946E-02
  1.4946E-02
  1.4946E-02
  1.4946E-02
  1.4946E-02
  1.4946E-02
  1.4946E-02
  1.4946E-02
  5.5833E-02
  5.5833E-02
  5.5833E-02
  5.5833E-02
  5.5833E-02
  5.5833E-02
  5.5833E-02
  5.5833E-02
  5.5833E-02
  2.0857E-01
  2.0857E-01
  2.0857E-01
  2.0857E-01
  2.0857E-01
  2.0857E-01
  2.0857E-01
  2.0857E-01
  2.0857E-01
  7.7912E-01
  7.7912E-01
  7.7912E-01
  7.7912E-01
  7.7912E-01
  7.7912E-01
  7.7912E-01
  7.7912E-01
  7.7912E-01
  1.2292E+00
  1.2292E+00
  1.2292E+00
  1.2292E+00
  1.2292E+00
  1.2292E+00
  1.2292E+00
  1.2292E+00
  1.2292E+00
   2.6500E-02
  1.2083E-11
  1.2083E-11
  1.2083E-11
  1.2083E-11
  1.2083E-11
  1.2083E-11
  1.2083E-11
  1.2083E-11
  1.2083E-11
  3.6306E-11
  3.6306E-11
  3.6306E-11
  3.6306E-11
  3.6306E-11
  3.6306E-11
  3.6306E-11
  3.6306E-11
  3.6306E-11
  1.4538E-10
  1.4538E-10
  1.4538E-10
  1.4538E-10
  1.4538E-10
  1.4538E-10
  1.4538E-10
  1.4538E-10
  1.4538E-10
  5.4570E-10
  5.4570E-10
  5.4570E-10
  5.4570E-10
  5.4570E-10
  5.4570E-10
  5.4570E-10
  5.4570E-10
  5.4570E-10
  2.0392E-09
  2.0392E-09
  2.0392E-09
  2.0392E-09
  2.0392E-09
  2.0392E-09
  2.0392E-09
  2.0392E-09
  2.0392E-09
  7.6179E-09
  7.6179E-09
  7.6179E-09
  7.6179E-09
  7.6179E-09
  7.6179E-09
  7.6179E-09
  7.6179E-09
  7.6179E-09
  2.8458E-08
  2.8458E-08
  2.8458E-08
  2.8458E-08
  2.8458E-08
  2.8458E-08
  2.8458E-08
  2.8458E-08
  2.8458E-08
  1.0631E-07
  1.0631E-07
  1.0631E-07
  1.0631E-07
  1.0631E-07
  1.0631E-07
  1.0631E-07
  1.0631E-07
  1.0631E-07
  3.9712E-07
  3.9712E-07
  3.9712E-07
  3.9712E-07
  3.9712E-07
  3.9712E-07
  3.9712E-07
  3.9712E-07
  3.9712E-07
  1.4835E-06
  1.4835E-06
  1.4835E-06
  1.4835E-06
  1.4835E-06
  1.4835E-06
  1.4835E-06
  1.4835E-06
  1.4835E-06
  5.5417E-06
  5.5417E-06
  5.5417E-06
  5.5417E-06
  5.5417E-06
  5.5417E-06
  5.5417E-06
  5.5417E-06
  5.5417E-06
  2.0702E-05
  2.0702E-05
  2.0702E-05
  2.0702E-05
  2.0702E-05
  2.0702E-05
  2.0702E-05
  2.0702E-05
  2.0702E-05
  7.7333E-05
  7.7333E-05
  7.7333E-05
  7.7333E-05
  7.7333E-05
  7.7333E-05
  7.7333E-05
  7.7333E-05
  7.7333E-05
  2.8889E-04
  2.8889E-04
  2.8889E-04
  2.8889E-04
  2.8889E-04
  2.8889E-04
  2.8889E-04
  2.8889E-04
  2.8889E-04
  1.0792E-03
  1.0792E-03
  1.0792E-03
  1.0792E-03
  1.0792E-03
  1.0792E-03
  1.0792E-03
  1.0792E-03
  1.0792E-03
  4.0313E-03
  4.0313E-03
  4.0313E-03
  4.0313E-03
  4.0313E-03
  4.0313E-03
  4.0313E-03
  4.0313E-03
  4.0313E-03
  1.5059E-02
  1.5059E-02
  1.5059E-02
  1.5059E-02
  1.5059E-02
  1.5059E-02
  1.5059E-02
  1.5059E-02
  1.5059E-02
  5.6256E-02
  5.6256E-02
  5.6256E-02
  5.6256E-02
  5.6256E-02
  5.6256E-02
  5.6256E-02
  5.6256E-02
  5.6256E-02
  2.1015E-01
  2.1015E-01
  2.1015E-01
  2.1015E-01
  2.1015E-01
  2.1015E-01
  2.1015E-01
  2.1015E-01
  2.1015E-01
  7.8503E-01
  7.8503E-01
  7.8503E-01
  7.8503E-01
  7.8503E-01
  7.8503E-01
  7.8503E-01
  7.8503E-01
  7.8503E-01
  1.2385E+00
  1.2385E+00
  1.2385E+00
  1.2385E+00
  1.2385E+00
  1.2385E+00
  1.2385E+00
  1.2385E+00
  1.2385E+00
   2.6600E-02
  1.2172E-11
  1.2172E-11
  1.2172E-11
  1.2172E-11
  1.2172E-11
  1.2172E-11
  1.2172E-11
  1.2172E-11
  1.2172E-11
  3.6575E-11
  3.6575E-11
  3.6575E-11
  3.6575E-11
  3.6575E-11
  3.6575E-11
  3.6575E-11
  3.6575E-11
  3.6575E-11
  1.4646E-10
  1.4646E-10
  1.4646E-10
  1.4646E-10
  1.4646E-10
  1.4646E-10
  1.4646E-10
  1.4646E-10
  1.4646E-10
  5.4976E-10
  5.4976E-10
  5.4976E-10
  5.4976E-10
  5.4976E-10
  5.4976E-10
  5.4976E-10
  5.4976E-10
  5.4976E-10
  2.0544E-09
  2.0544E-09
  2.0544E-09
  2.0544E-09
  2.0544E-09
  2.0544E-09
  2.0544E-09
  2.0544E-09
  2.0544E-09
  7.6747E-09
  7.6747E-09
  7.6747E-09
  7.6747E-09
  7.6747E-09
  7.6747E-09
  7.6747E-09
  7.6747E-09
  7.6747E-09
  2.8670E-08
  2.8670E-08
  2.8670E-08
  2.8670E-08
  2.8670E-08
  2.8670E-08
  2.8670E-08
  2.8670E-08
  2.8670E-08
  1.0710E-07
  1.0710E-07
  1.0710E-07
  1.0710E-07
  1.0710E-07
  1.0710E-07
  1.0710E-07
  1.0710E-07
  1.0710E-07
  4.0009E-07
  4.0009E-07
  4.0009E-07
  4.0009E-07
  4.0009E-07
  4.0009E-07
  4.0009E-07
  4.0009E-07
  4.0009E-07
  1.4946E-06
  1.4946E-06
  1.4946E-06
  1.4946E-06
  1.4946E-06
  1.4946E-06
  1.4946E-06
  1.4946E-06
  1.4946E-06
  5.5832E-06
  5.5832E-06
  5.5832E-06
  5.5832E-06
  5.5832E-06
  5.5832E-06
  5.5832E-06
  5.5832E-06
  5.5832E-06
  2.0857E-05
  2.0857E-05
  2.0857E-05
  2.0857E-05
  2.0857E-05
  2.0857E-05
  2.0857E-05
  2.0857E-05
  2.0857E-05
  7.7914E-05
  7.7914E-05
  7.7914E-05
  7.7914E-05
  7.7914E-05
  7.7914E-05
  7.7914E-05
  7.7914E-05
  7.7914E-05
  2.9106E-04
  2.9106E-04
  2.9106E-04
  2.9106E-04
  2.9106E-04
  2.9106E-04
  2.9106E-04
  2.9106E-04
  2.9106E-04
  1.0873E-03
  1.0873E-03
  1.0873E-03
  1.0873E-03
  1.0873E-03
  1.0873E-03
  1.0873E-03
  1.0873E-03
  1.0873E-03
  4.0617E-03
  4.0617E-03
  4.0617E-03
  4.0617E-03
  4.0617E-03
  4.0617E-03
  4.0617E-03
  4.0617E-03
  4.0617E-03
  1.5173E-02
  1.5173E-02
  1.5173E-02
  1.5173E-02
  1.5173E-02
  1.5173E-02
  1.5173E-02
  1.5173E-02
  1.5173E-02
  5.6680E-02
  5.6680E-02
  5.6680E-02
  5.6680E-02
  5.6680E-02
  5.6680E-02
  5.6680E-02
  5.6680E-02
  5.6680E-02
  2.1173E-01
  2.1173E-01
  2.1173E-01
  2.1173E-01
  2.1173E-01
  2.1173E-01
  2.1173E-01
  2.1173E-01
  2.1173E-01
  7.9096E-01
  7.9096E-01
  7.9096E-01
  7.9096E-01
  7.9096E-01
  7.9096E-01
  7.9096E-01
  7.9096E-01
  7.9096E-01
  1.2479E+00
  1.2479E+00
  1.2479E+00
  1.2479E+00
  1.2479E+00
  1.2479E+00
  1.2479E+00
  1.2479E+00
  1.2479E+00
   2.6700E-02
  1.2262E-11
  1.2262E-11
  1.2262E-11
  1.2262E-11
  1.2262E-11
  1.2262E-11
  1.2262E-11
  1.2262E-11
  1.2262E-11
  3.6846E-11
  3.6846E-11
  3.6846E-11
  3.6846E-11
  3.6846E-11
  3.6846E-11
  3.6846E-11
  3.6846E-11
  3.6846E-11
  1.4755E-10
  1.4755E-10
  1.4755E-10
  1.4755E-10
  1.4755E-10
  1.4755E-10
  1.4755E-10
  1.4755E-10
  1.4755E-10
  5.5383E-10
  5.5383E-10
  5.5383E-10
  5.5383E-10
  5.5383E-10
  5.5383E-10
  5.5383E-10
  5.5383E-10
  5.5383E-10
  2.0696E-09
  2.0696E-09
  2.0696E-09
  2.0696E-09
  2.0696E-09
  2.0696E-09
  2.0696E-09
  2.0696E-09
  2.0696E-09
  7.7317E-09
  7.7317E-09
  7.7317E-09
  7.7317E-09
  7.7317E-09
  7.7317E-09
  7.7317E-09
  7.7317E-09
  7.7317E-09
  2.8883E-08
  2.8883E-08
  2.8883E-08
  2.8883E-08
  2.8883E-08
  2.8883E-08
  2.8883E-08
  2.8883E-08
  2.8883E-08
  1.0790E-07
  1.0790E-07
  1.0790E-07
  1.0790E-07
  1.0790E-07
  1.0790E-07
  1.0790E-07
  1.0790E-07
  1.0790E-07
  4.0307E-07
  4.0307E-07
  4.0307E-07
  4.0307E-07
  4.0307E-07
  4.0307E-07
  4.0307E-07
  4.0307E-07
  4.0307E-07
  1.5057E-06
  1.5057E-06
  1.5057E-06
  1.5057E-06
  1.5057E-06
  1.5057E-06
  1.5057E-06
  1.5057E-06
  1.5057E-06
  5.6249E-06
  5.6249E-06
  5.6249E-06
  5.6249E-06
  5.6249E-06
  5.6249E-06
  5.6249E-06
  5.6249E-06
  5.6249E-06
  2.1013E-05
  2.1013E-05
  2.1013E-05
  2.1013E-05
  2.1013E-05
  2.1013E-05
  2.1013E-05
  2.1013E-05
  2.1013E-05
  7.8496E-05
  7.8496E-05
  7.8496E-05
  7.8496E-05
  7.8496E-05
  7.8496E-05
  7.8496E-05
  7.8496E-05
  7.8496E-05
  2.9323E-04
  2.9323E-04
  2.9323E-04
  2.9323E-04
  2.9323E-04
  2.9323E-04
  2.9323E-04
  2.9323E-04
  2.9323E-04
  1.0954E-03
  1.0954E-03
  1.0954E-03
  1.0954E-03
  1.0954E-03
  1.0954E-03
  1.0954E-03
  1.0954E-03
  1.0954E-03
  4.0921E-03
  4.0921E-03
  4.0921E-03
  4.0921E-03
  4.0921E-03
  4.0921E-03
  4.0921E-03
  4.0921E-03
  4.0921E-03
  1.5287E-02
  1.5287E-02
  1.5287E-02
  1.5287E-02
  1.5287E-02
  1.5287E-02
  1.5287E-02
  1.5287E-02
  1.5287E-02
  5.7106E-02
  5.7106E-02
  5.7106E-02
  5.7106E-02
  5.7106E-02
  5.7106E-02
  5.7106E-02
  5.7106E-02
  5.7106E-02
  2.1333E-01
  2.1333E-01
  2.1333E-01
  2.1333E-01
  2.1333E-01
  2.1333E-01
  2.1333E-01
  2.1333E-01
  2.1333E-01
  7.9691E-01
  7.9691E-01
  7.9691E-01
  7.9691E-01
  7.9691E-01
  7.9691E-01
  7.9691E-01
  7.9691E-01
  7.9691E-01
  1.2573E+00
  1.2573E+00
  1.2573E+00
  1.2573E+00
  1.2573E+00
  1.2573E+00
  1.2573E+00
  1.2573E+00
  1.2573E+00
   2.6800E-02
  1.2352E-11
  1.2352E-11
  1.2352E-11
  1.2352E-11
  1.2352E-11
  1.2352E-11
  1.2352E-11
  1.2352E-11
  1.2352E-11
  3.7117E-11
  3.7117E-11
  3.7117E-11
  3.7117E-11
  3.7117E-11
  3.7117E-11
  3.7117E-11
  3.7117E-11
  3.7117E-11
  1.4863E-10
  1.4863E-10
  1.4863E-10
  1.4863E-10
  1.4863E-10
  1.4863E-10
  1.4863E-10
  1.4863E-10
  1.4863E-10
  5.5792E-10
  5.5792E-10
  5.5792E-10
  5.5792E-10
  5.5792E-10
  5.5792E-10
  5.5792E-10
  5.5792E-10
  5.5792E-10
  2.0849E-09
  2.0849E-09
  2.0849E-09
  2.0849E-09
  2.0849E-09
  2.0849E-09
  2.0849E-09
  2.0849E-09
  2.0849E-09
  7.7889E-09
  7.7889E-09
  7.7889E-09
  7.7889E-09
  7.7889E-09
  7.7889E-09
  7.7889E-09
  7.7889E-09
  7.7889E-09
  2.9097E-08
  2.9097E-08
  2.9097E-08
  2.9097E-08
  2.9097E-08
  2.9097E-08
  2.9097E-08
  2.9097E-08
  2.9097E-08
  1.0870E-07
  1.0870E-07
  1.0870E-07
  1.0870E-07
  1.0870E-07
  1.0870E-07
  1.0870E-07
  1.0870E-07
  1.0870E-07
  4.0606E-07
  4.0606E-07
  4.0606E-07
  4.0606E-07
  4.0606E-07
  4.0606E-07
  4.0606E-07
  4.0606E-07
  4.0606E-07
  1.5169E-06
  1.5169E-06
  1.5169E-06
  1.5169E-06
  1.5169E-06
  1.5169E-06
  1.5169E-06
  1.5169E-06
  1.5169E-06
  5.6667E-06
  5.6667E-06
  5.6667E-06
  5.6667E-06
  5.6667E-06
  5.6667E-06
  5.6667E-06
  5.6667E-06
  5.6667E-06
  2.1169E-05
  2.1169E-05
  2.1169E-05
  2.1169E-05
  2.1169E-05
  2.1169E-05
  2.1169E-05
  2.1169E-05
  2.1169E-05
  7.9081E-05
  7.9081E-05
  7.9081E-05
  7.9081E-05
  7.9081E-05
  7.9081E-05
  7.9081E-05
  7.9081E-05
  7.9081E-05
  2.9542E-04
  2.9542E-04
  2.9542E-04
  2.9542E-04
  2.9542E-04
  2.9542E-04
  2.9542E-04
  2.9542E-04
  2.9542E-04
  1.1036E-03
  1.1036E-03
  1.1036E-03
  1.1036E-03
  1.1036E-03
  1.1036E-03
  1.1036E-03
  1.1036E-03
  1.1036E-03
  4.1227E-03
  4.1227E-03
  4.1227E-03
  4.1227E-03
  4.1227E-03
  4.1227E-03
  4.1227E-03
  4.1227E-03
  4.1227E-03
  1.5401E-02
  1.5401E-02
  1.5401E-02
  1.5401E-02
  1.5401E-02
  1.5401E-02
  1.5401E-02
  1.5401E-02
  1.5401E-02
  5.7533E-02
  5.7533E-02
  5.7533E-02
  5.7533E-02
  5.7533E-02
  5.7533E-02
  5.7533E-02
  5.7533E-02
  5.7533E-02
  2.1492E-01
  2.1492E-01
  2.1492E-01
  2.1492E-01
  2.1492E-01
  2.1492E-01
  2.1492E-01
  2.1492E-01
  2.1492E-01
  8.0289E-01
  8.0289E-01
  8.0289E-01
  8.0289E-01
  8.0289E-01
  8.0289E-01
  8.0289E-01
  8.0289E-01
  8.0289E-01
  1.2667E+00
  1.2667E+00
  1.2667E+00
  1.2667E+00
  1.2667E+00
  1.2667E+00
  1.2667E+00
  1.2667E+00
  1.2667E+00
   2.6900E-02
  1.2443E-11
  1.2443E-11
  1.2443E-11
  1.2443E-11
  1.2443E-11
  1.2443E-11
  1.2443E-11
  1.2443E-11
  1.2443E-11
  3.7389E-11
  3.7389E-11
  3.7389E-11
  3.7389E-11
  3.7389E-11
  3.7389E-11
  3.7389E-11
  3.7389E-11
  3.7389E-11
  1.4972E-10
  1.4972E-10
  1.4972E-10
  1.4972E-10
  1.4972E-10
  1.4972E-10
  1.4972E-10
  1.4972E-10
  1.4972E-10
  5.6202E-10
  5.6202E-10
  5.6202E-10
  5.6202E-10
  5.6202E-10
  5.6202E-10
  5.6202E-10
  5.6202E-10
  5.6202E-10
  2.1003E-09
  2.1003E-09
  2.1003E-09
  2.1003E-09
  2.1003E-09
  2.1003E-09
  2.1003E-09
  2.1003E-09
  2.1003E-09
  7.8463E-09
  7.8463E-09
  7.8463E-09
  7.8463E-09
  7.8463E-09
  7.8463E-09
  7.8463E-09
  7.8463E-09
  7.8463E-09
  2.9311E-08
  2.9311E-08
  2.9311E-08
  2.9311E-08
  2.9311E-08
  2.9311E-08
  2.9311E-08
  2.9311E-08
  2.9311E-08
  1.0950E-07
  1.0950E-07
  1.0950E-07
  1.0950E-07
  1.0950E-07
  1.0950E-07
  1.0950E-07
  1.0950E-07
  1.0950E-07
  4.0906E-07
  4.0906E-07
  4.0906E-07
  4.0906E-07
  4.0906E-07
  4.0906E-07
  4.0906E-07
  4.0906E-07
  4.0906E-07
  1.5281E-06
  1.5281E-06
  1.5281E-06
  1.5281E-06
  1.5281E-06
  1.5281E-06
  1.5281E-06
  1.5281E-06
  1.5281E-06
  5.7087E-06
  5.7087E-06
  5.7087E-06
  5.7087E-06
  5.7087E-06
  5.7087E-06
  5.7087E-06
  5.7087E-06
  5.7087E-06
  2.1326E-05
  2.1326E-05
  2.1326E-05
  2.1326E-05
  2.1326E-05
  2.1326E-05
  2.1326E-05
  2.1326E-05
  2.1326E-05
  7.9667E-05
  7.9667E-05
  7.9667E-05
  7.9667E-05
  7.9667E-05
  7.9667E-05
  7.9667E-05
  7.9667E-05
  7.9667E-05
  2.9761E-04
  2.9761E-04
  2.9761E-04
  2.9761E-04
  2.9761E-04
  2.9761E-04
  2.9761E-04
  2.9761E-04
  2.9761E-04
  1.1118E-03
  1.1118E-03
  1.1118E-03
  1.1118E-03
  1.1118E-03
  1.1118E-03
  1.1118E-03
  1.1118E-03
  1.1118E-03
  4.1534E-03
  4.1534E-03
  4.1534E-03
  4.1534E-03
  4.1534E-03
  4.1534E-03
  4.1534E-03
  4.1534E-03
  4.1534E-03
  1.5516E-02
  1.5516E-02
  1.5516E-02
  1.5516E-02
  1.5516E-02
  1.5516E-02
  1.5516E-02
  1.5516E-02
  1.5516E-02
  5.7962E-02
  5.7962E-02
  5.7962E-02
  5.7962E-02
  5.7962E-02
  5.7962E-02
  5.7962E-02
  5.7962E-02
  5.7962E-02
  2.1653E-01
  2.1653E-01
  2.1653E-01
  2.1653E-01
  2.1653E-01
  2.1653E-01
  2.1653E-01
  2.1653E-01
  2.1653E-01
  8.0889E-01
  8.0889E-01
  8.0889E-01
  8.0889E-01
  8.0889E-01
  8.0889E-01
  8.0889E-01
  8.0889E-01
  8.0889E-01
  1.2762E+00
  1.2762E+00
  1.2762E+00
  1.2762E+00
  1.2762E+00
  1.2762E+00
  1.2762E+00
  1.2762E+00
  1.2762E+00
   2.7000E-02
  1.2533E-11
  1.2533E-11
  1.2533E-11
  1.2533E-11
  1.2533E-11
  1.2533E-11
  1.2533E-11
  1.2533E-11
  1.2533E-11
  3.7662E-11
  3.7662E-11
  3.7662E-11
  3.7662E-11
  3.7662E-11
  3.7662E-11
  3.7662E-11
  3.7662E-11
  3.7662E-11
  1.5082E-10
  1.5082E-10
  1.5082E-10
  1.5082E-10
  1.5082E-10
  1.5082E-10
  1.5082E-10
  1.5082E-10
  1.5082E-10
  5.6614E-10
  5.6614E-10
  5.6614E-10
  5.6614E-10
  5.6614E-10
  5.6614E-10
  5.6614E-10
  5.6614E-10
  5.6614E-10
  2.1157E-09
  2.1157E-09
  2.1157E-09
  2.1157E-09
  2.1157E-09
  2.1157E-09
  2.1157E-09
  2.1157E-09
  2.1157E-09
  7.9038E-09
  7.9038E-09
  7.9038E-09
  7.9038E-09
  7.9038E-09
  7.9038E-09
  7.9038E-09
  7.9038E-09
  7.9038E-09
  2.9527E-08
  2.9527E-08
  2.9527E-08
  2.9527E-08
  2.9527E-08
  2.9527E-08
  2.9527E-08
  2.9527E-08
  2.9527E-08
  1.1030E-07
  1.1030E-07
  1.1030E-07
  1.1030E-07
  1.1030E-07
  1.1030E-07
  1.1030E-07
  1.1030E-07
  1.1030E-07
  4.1207E-07
  4.1207E-07
  4.1207E-07
  4.1207E-07
  4.1207E-07
  4.1207E-07
  4.1207E-07
  4.1207E-07
  4.1207E-07
  1.5394E-06
  1.5394E-06
  1.5394E-06
  1.5394E-06
  1.5394E-06
  1.5394E-06
  1.5394E-06
  1.5394E-06
  1.5394E-06
  5.7508E-06
  5.7508E-06
  5.7508E-06
  5.7508E-06
  5.7508E-06
  5.7508E-06
  5.7508E-06
  5.7508E-06
  5.7508E-06
  2.1483E-05
  2.1483E-05
  2.1483E-05
  2.1483E-05
  2.1483E-05
  2.1483E-05
  2.1483E-05
  2.1483E-05
  2.1483E-05
  8.0256E-05
  8.0256E-05
  8.0256E-05
  8.0256E-05
  8.0256E-05
  8.0256E-05
  8.0256E-05
  8.0256E-05
  8.0256E-05
  2.9982E-04
  2.9982E-04
  2.9982E-04
  2.9982E-04
  2.9982E-04
  2.9982E-04
  2.9982E-04
  2.9982E-04
  2.9982E-04
  1.1200E-03
  1.1200E-03
  1.1200E-03
  1.1200E-03
  1.1200E-03
  1.1200E-03
  1.1200E-03
  1.1200E-03
  1.1200E-03
  4.1841E-03
  4.1841E-03
  4.1841E-03
  4.1841E-03
  4.1841E-03
  4.1841E-03
  4.1841E-03
  4.1841E-03
  4.1841E-03
  1.5631E-02
  1.5631E-02
  1.5631E-02
  1.5631E-02
  1.5631E-02
  1.5631E-02
  1.5631E-02
  1.5631E-02
  1.5631E-02
  5.8393E-02
  5.8393E-02
  5.8393E-02
  5.8393E-02
  5.8393E-02
  5.8393E-02
  5.8393E-02
  5.8393E-02
  5.8393E-02
  2.1814E-01
  2.1814E-01
  2.1814E-01
  2.1814E-01
  2.1814E-01
  2.1814E-01
  2.1814E-01
  2.1814E-01
  2.1814E-01
  8.1491E-01
  8.1491E-01
  8.1491E-01
  8.1491E-01
  8.1491E-01
  8.1491E-01
  8.1491E-01
  8.1491E-01
  8.1491E-01
  1.2857E+00
  1.2857E+00
  1.2857E+00
  1.2857E+00
  1.2857E+00
  1.2857E+00
  1.2857E+00
  1.2857E+00
  1.2857E+00
   2.7100E-02
  1.2624E-11
  1.2624E-11
  1.2624E-11
  1.2624E-11
  1.2624E-11
  1.2624E-11
  1.2624E-11
  1.2624E-11
  1.2624E-11
  3.7937E-11
  3.7937E-11
  3.7937E-11
  3.7937E-11
  3.7937E-11
  3.7937E-11
  3.7937E-11
  3.7937E-11
  3.7937E-11
  1.5192E-10
  1.5192E-10
  1.5192E-10
  1.5192E-10
  1.5192E-10
  1.5192E-10
  1.5192E-10
  1.5192E-10
  1.5192E-10
  5.7027E-10
  5.7027E-10
  5.7027E-10
  5.7027E-10
  5.7027E-10
  5.7027E-10
  5.7027E-10
  5.7027E-10
  5.7027E-10
  2.1311E-09
  2.1311E-09
  2.1311E-09
  2.1311E-09
  2.1311E-09
  2.1311E-09
  2.1311E-09
  2.1311E-09
  2.1311E-09
  7.9616E-09
  7.9616E-09
  7.9616E-09
  7.9616E-09
  7.9616E-09
  7.9616E-09
  7.9616E-09
  7.9616E-09
  7.9616E-09
  2.9743E-08
  2.9743E-08
  2.9743E-08
  2.9743E-08
  2.9743E-08
  2.9743E-08
  2.9743E-08
  2.9743E-08
  2.9743E-08
  1.1111E-07
  1.1111E-07
  1.1111E-07
  1.1111E-07
  1.1111E-07
  1.1111E-07
  1.1111E-07
  1.1111E-07
  1.1111E-07
  4.1509E-07
  4.1509E-07
  4.1509E-07
  4.1509E-07
  4.1509E-07
  4.1509E-07
  4.1509E-07
  4.1509E-07
  4.1509E-07
  1.5507E-06
  1.5507E-06
  1.5507E-06
  1.5507E-06
  1.5507E-06
  1.5507E-06
  1.5507E-06
  1.5507E-06
  1.5507E-06
  5.7930E-06
  5.7930E-06
  5.7930E-06
  5.7930E-06
  5.7930E-06
  5.7930E-06
  5.7930E-06
  5.7930E-06
  5.7930E-06
  2.1641E-05
  2.1641E-05
  2.1641E-05
  2.1641E-05
  2.1641E-05
  2.1641E-05
  2.1641E-05
  2.1641E-05
  2.1641E-05
  8.0847E-05
  8.0847E-05
  8.0847E-05
  8.0847E-05
  8.0847E-05
  8.0847E-05
  8.0847E-05
  8.0847E-05
  8.0847E-05
  3.0203E-04
  3.0203E-04
  3.0203E-04
  3.0203E-04
  3.0203E-04
  3.0203E-04
  3.0203E-04
  3.0203E-04
  3.0203E-04
  1.1283E-03
  1.1283E-03
  1.1283E-03
  1.1283E-03
  1.1283E-03
  1.1283E-03
  1.1283E-03
  1.1283E-03
  1.1283E-03
  4.2150E-03
  4.2150E-03
  4.2150E-03
  4.2150E-03
  4.2150E-03
  4.2150E-03
  4.2150E-03
  4.2150E-03
  4.2150E-03
  1.5746E-02
  1.5746E-02
  1.5746E-02
  1.5746E-02
  1.5746E-02
  1.5746E-02
  1.5746E-02
  1.5746E-02
  1.5746E-02
  5.8825E-02
  5.8825E-02
  5.8825E-02
  5.8825E-02
  5.8825E-02
  5.8825E-02
  5.8825E-02
  5.8825E-02
  5.8825E-02
  2.1975E-01
  2.1975E-01
  2.1975E-01
  2.1975E-01
  2.1975E-01
  2.1975E-01
  2.1975E-01
  2.1975E-01
  2.1975E-01
  8.2095E-01
  8.2095E-01
  8.2095E-01
  8.2095E-01
  8.2095E-01
  8.2095E-01
  8.2095E-01
  8.2095E-01
  8.2095E-01
  1.2952E+00
  1.2952E+00
  1.2952E+00
  1.2952E+00
  1.2952E+00
  1.2952E+00
  1.2952E+00
  1.2952E+00
  1.2952E+00
   2.7200E-02
  1.2716E-11
  1.2716E-11
  1.2716E-11
  1.2716E-11
  1.2716E-11
  1.2716E-11
  1.2716E-11
  1.2716E-11
  1.2716E-11
  3.8212E-11
  3.8212E-11
  3.8212E-11
  3.8212E-11
  3.8212E-11
  3.8212E-11
  3.8212E-11
  3.8212E-11
  3.8212E-11
  1.5302E-10
  1.5302E-10
  1.5302E-10
  1.5302E-10
  1.5302E-10
  1.5302E-10
  1.5302E-10
  1.5302E-10
  1.5302E-10
  5.7441E-10
  5.7441E-10
  5.7441E-10
  5.7441E-10
  5.7441E-10
  5.7441E-10
  5.7441E-10
  5.7441E-10
  5.7441E-10
  2.1466E-09
  2.1466E-09
  2.1466E-09
  2.1466E-09
  2.1466E-09
  2.1466E-09
  2.1466E-09
  2.1466E-09
  2.1466E-09
  8.0196E-09
  8.0196E-09
  8.0196E-09
  8.0196E-09
  8.0196E-09
  8.0196E-09
  8.0196E-09
  8.0196E-09
  8.0196E-09
  2.9960E-08
  2.9960E-08
  2.9960E-08
  2.9960E-08
  2.9960E-08
  2.9960E-08
  2.9960E-08
  2.9960E-08
  2.9960E-08
  1.1192E-07
  1.1192E-07
  1.1192E-07
  1.1192E-07
  1.1192E-07
  1.1192E-07
  1.1192E-07
  1.1192E-07
  1.1192E-07
  4.1813E-07
  4.1813E-07
  4.1813E-07
  4.1813E-07
  4.1813E-07
  4.1813E-07
  4.1813E-07
  4.1813E-07
  4.1813E-07
  1.5620E-06
  1.5620E-06
  1.5620E-06
  1.5620E-06
  1.5620E-06
  1.5620E-06
  1.5620E-06
  1.5620E-06
  1.5620E-06
  5.8354E-06
  5.8354E-06
  5.8354E-06
  5.8354E-06
  5.8354E-06
  5.8354E-06
  5.8354E-06
  5.8354E-06
  5.8354E-06
  2.1800E-05
  2.1800E-05
  2.1800E-05
  2.1800E-05
  2.1800E-05
  2.1800E-05
  2.1800E-05
  2.1800E-05
  2.1800E-05
  8.1440E-05
  8.1440E-05
  8.1440E-05
  8.1440E-05
  8.1440E-05
  8.1440E-05
  8.1440E-05
  8.1440E-05
  8.1440E-05
  3.0424E-04
  3.0424E-04
  3.0424E-04
  3.0424E-04
  3.0424E-04
  3.0424E-04
  3.0424E-04
  3.0424E-04
  3.0424E-04
  1.1366E-03
  1.1366E-03
  1.1366E-03
  1.1366E-03
  1.1366E-03
  1.1366E-03
  1.1366E-03
  1.1366E-03
  1.1366E-03
  4.2461E-03
  4.2461E-03
  4.2461E-03
  4.2461E-03
  4.2461E-03
  4.2461E-03
  4.2461E-03
  4.2461E-03
  4.2461E-03
  1.5862E-02
  1.5862E-02
  1.5862E-02
  1.5862E-02
  1.5862E-02
  1.5862E-02
  1.5862E-02
  1.5862E-02
  1.5862E-02
  5.9258E-02
  5.9258E-02
  5.9258E-02
  5.9258E-02
  5.9258E-02
  5.9258E-02
  5.9258E-02
  5.9258E-02
  5.9258E-02
  2.2138E-01
  2.2138E-01
  2.2138E-01
  2.2138E-01
  2.2138E-01
  2.2138E-01
  2.2138E-01
  2.2138E-01
  2.2138E-01
  8.2701E-01
  8.2701E-01
  8.2701E-01
  8.2701E-01
  8.2701E-01
  8.2701E-01
  8.2701E-01
  8.2701E-01
  8.2701E-01
  1.3048E+00
  1.3048E+00
  1.3048E+00
  1.3048E+00
  1.3048E+00
  1.3048E+00
  1.3048E+00
  1.3048E+00
  1.3048E+00
   2.7300E-02
  1.2808E-11
  1.2808E-11
  1.2808E-11
  1.2808E-11
  1.2808E-11
  1.2808E-11
  1.2808E-11
  1.2808E-11
  1.2808E-11
  3.8488E-11
  3.8488E-11
  3.8488E-11
  3.8488E-11
  3.8488E-11
  3.8488E-11
  3.8488E-11
  3.8488E-11
  3.8488E-11
  1.5413E-10
  1.5413E-10
  1.5413E-10
  1.5413E-10
  1.5413E-10
  1.5413E-10
  1.5413E-10
  1.5413E-10
  1.5413E-10
  5.7857E-10
  5.7857E-10
  5.7857E-10
  5.7857E-10
  5.7857E-10
  5.7857E-10
  5.7857E-10
  5.7857E-10
  5.7857E-10
  2.1622E-09
  2.1622E-09
  2.1622E-09
  2.1622E-09
  2.1622E-09
  2.1622E-09
  2.1622E-09
  2.1622E-09
  2.1622E-09
  8.0778E-09
  8.0778E-09
  8.0778E-09
  8.0778E-09
  8.0778E-09
  8.0778E-09
  8.0778E-09
  8.0778E-09
  8.0778E-09
  3.0177E-08
  3.0177E-08
  3.0177E-08
  3.0177E-08
  3.0177E-08
  3.0177E-08
  3.0177E-08
  3.0177E-08
  3.0177E-08
  1.1274E-07
  1.1274E-07
  1.1274E-07
  1.1274E-07
  1.1274E-07
  1.1274E-07
  1.1274E-07
  1.1274E-07
  1.1274E-07
  4.2117E-07
  4.2117E-07
  4.2117E-07
  4.2117E-07
  4.2117E-07
  4.2117E-07
  4.2117E-07
  4.2117E-07
  4.2117E-07
  1.5734E-06
  1.5734E-06
  1.5734E-06
  1.5734E-06
  1.5734E-06
  1.5734E-06
  1.5734E-06
  1.5734E-06
  1.5734E-06
  5.8780E-06
  5.8780E-06
  5.8780E-06
  5.8780E-06
  5.8780E-06
  5.8780E-06
  5.8780E-06
  5.8780E-06
  5.8780E-06
  2.1959E-05
  2.1959E-05
  2.1959E-05
  2.1959E-05
  2.1959E-05
  2.1959E-05
  2.1959E-05
  2.1959E-05
  2.1959E-05
  8.2035E-05
  8.2035E-05
  8.2035E-05
  8.2035E-05
  8.2035E-05
  8.2035E-05
  8.2035E-05
  8.2035E-05
  8.2035E-05
  3.0647E-04
  3.0647E-04
  3.0647E-04
  3.0647E-04
  3.0647E-04
  3.0647E-04
  3.0647E-04
  3.0647E-04
  3.0647E-04
  1.1449E-03
  1.1449E-03
  1.1449E-03
  1.1449E-03
  1.1449E-03
  1.1449E-03
  1.1449E-03
  1.1449E-03
  1.1449E-03
  4.2772E-03
  4.2772E-03
  4.2772E-03
  4.2772E-03
  4.2772E-03
  4.2772E-03
  4.2772E-03
  4.2772E-03
  4.2772E-03
  1.5979E-02
  1.5979E-02
  1.5979E-02
  1.5979E-02
  1.5979E-02
  1.5979E-02
  1.5979E-02
  1.5979E-02
  1.5979E-02
  5.9694E-02
  5.9694E-02
  5.9694E-02
  5.9694E-02
  5.9694E-02
  5.9694E-02
  5.9694E-02
  5.9694E-02
  5.9694E-02
  2.2300E-01
  2.2300E-01
  2.2300E-01
  2.2300E-01
  2.2300E-01
  2.2300E-01
  2.2300E-01
  2.2300E-01
  2.2300E-01
  8.3310E-01
  8.3310E-01
  8.3310E-01
  8.3310E-01
  8.3310E-01
  8.3310E-01
  8.3310E-01
  8.3310E-01
  8.3310E-01
  1.3144E+00
  1.3144E+00
  1.3144E+00
  1.3144E+00
  1.3144E+00
  1.3144E+00
  1.3144E+00
  1.3144E+00
  1.3144E+00
   2.7400E-02
  1.2900E-11
  1.2900E-11
  1.2900E-11
  1.2900E-11
  1.2900E-11
  1.2900E-11
  1.2900E-11
  1.2900E-11
  1.2900E-11
  3.8765E-11
  3.8765E-11
  3.8765E-11
  3.8765E-11
  3.8765E-11
  3.8765E-11
  3.8765E-11
  3.8765E-11
  3.8765E-11
  1.5524E-10
  1.5524E-10
  1.5524E-10
  1.5524E-10
  1.5524E-10
  1.5524E-10
  1.5524E-10
  1.5524E-10
  1.5524E-10
  5.8275E-10
  5.8275E-10
  5.8275E-10
  5.8275E-10
  5.8275E-10
  5.8275E-10
  5.8275E-10
  5.8275E-10
  5.8275E-10
  2.1778E-09
  2.1778E-09
  2.1778E-09
  2.1778E-09
  2.1778E-09
  2.1778E-09
  2.1778E-09
  2.1778E-09
  2.1778E-09
  8.1362E-09
  8.1362E-09
  8.1362E-09
  8.1362E-09
  8.1362E-09
  8.1362E-09
  8.1362E-09
  8.1362E-09
  8.1362E-09
  3.0396E-08
  3.0396E-08
  3.0396E-08
  3.0396E-08
  3.0396E-08
  3.0396E-08
  3.0396E-08
  3.0396E-08
  3.0396E-08
  1.1355E-07
  1.1355E-07
  1.1355E-07
  1.1355E-07
  1.1355E-07
  1.1355E-07
  1.1355E-07
  1.1355E-07
  1.1355E-07
  4.2422E-07
  4.2422E-07
  4.2422E-07
  4.2422E-07
  4.2422E-07
  4.2422E-07
  4.2422E-07
  4.2422E-07
  4.2422E-07
  1.5848E-06
  1.5848E-06
  1.5848E-06
  1.5848E-06
  1.5848E-06
  1.5848E-06
  1.5848E-06
  1.5848E-06
  1.5848E-06
  5.9207E-06
  5.9207E-06
  5.9207E-06
  5.9207E-06
  5.9207E-06
  5.9207E-06
  5.9207E-06
  5.9207E-06
  5.9207E-06
  2.2119E-05
  2.2119E-05
  2.2119E-05
  2.2119E-05
  2.2119E-05
  2.2119E-05
  2.2119E-05
  2.2119E-05
  2.2119E-05
  8.2633E-05
  8.2633E-05
  8.2633E-05
  8.2633E-05
  8.2633E-05
  8.2633E-05
  8.2633E-05
  8.2633E-05
  8.2633E-05
  3.0870E-04
  3.0870E-04
  3.0870E-04
  3.0870E-04
  3.0870E-04
  3.0870E-04
  3.0870E-04
  3.0870E-04
  3.0870E-04
  1.1533E-03
  1.1533E-03
  1.1533E-03
  1.1533E-03
  1.1533E-03
  1.1533E-03
  1.1533E-03
  1.1533E-03
  1.1533E-03
  4.3084E-03
  4.3084E-03
  4.3084E-03
  4.3084E-03
  4.3084E-03
  4.3084E-03
  4.3084E-03
  4.3084E-03
  4.3084E-03
  1.6096E-02
  1.6096E-02
  1.6096E-02
  1.6096E-02
  1.6096E-02
  1.6096E-02
  1.6096E-02
  1.6096E-02
  1.6096E-02
  6.0131E-02
  6.0131E-02
  6.0131E-02
  6.0131E-02
  6.0131E-02
  6.0131E-02
  6.0131E-02
  6.0131E-02
  6.0131E-02
  2.2464E-01
  2.2464E-01
  2.2464E-01
  2.2464E-01
  2.2464E-01
  2.2464E-01
  2.2464E-01
  2.2464E-01
  2.2464E-01
  8.3921E-01
  8.3921E-01
  8.3921E-01
  8.3921E-01
  8.3921E-01
  8.3921E-01
  8.3921E-01
  8.3921E-01
  8.3921E-01
  1.3240E+00
  1.3240E+00
  1.3240E+00
  1.3240E+00
  1.3240E+00
  1.3240E+00
  1.3240E+00
  1.3240E+00
  1.3240E+00
   2.7500E-02
  1.2992E-11
  1.2992E-11
  1.2992E-11
  1.2992E-11
  1.2992E-11
  1.2992E-11
  1.2992E-11
  1.2992E-11
  1.2992E-11
  3.9043E-11
  3.9043E-11
  3.9043E-11
  3.9043E-11
  3.9043E-11
  3.9043E-11
  3.9043E-11
  3.9043E-11
  3.9043E-11
  1.5635E-10
  1.5635E-10
  1.5635E-10
  1.5635E-10
  1.5635E-10
  1.5635E-10
  1.5635E-10
  1.5635E-10
  1.5635E-10
  5.8693E-10
  5.8693E-10
  5.8693E-10
  5.8693E-10
  5.8693E-10
  5.8693E-10
  5.8693E-10
  5.8693E-10
  5.8693E-10
  2.1935E-09
  2.1935E-09
  2.1935E-09
  2.1935E-09
  2.1935E-09
  2.1935E-09
  2.1935E-09
  2.1935E-09
  2.1935E-09
  8.1948E-09
  8.1948E-09
  8.1948E-09
  8.1948E-09
  8.1948E-09
  8.1948E-09
  8.1948E-09
  8.1948E-09
  8.1948E-09
  3.0615E-08
  3.0615E-08
  3.0615E-08
  3.0615E-08
  3.0615E-08
  3.0615E-08
  3.0615E-08
  3.0615E-08
  3.0615E-08
  1.1437E-07
  1.1437E-07
  1.1437E-07
  1.1437E-07
  1.1437E-07
  1.1437E-07
  1.1437E-07
  1.1437E-07
  1.1437E-07
  4.2729E-07
  4.2729E-07
  4.2729E-07
  4.2729E-07
  4.2729E-07
  4.2729E-07
  4.2729E-07
  4.2729E-07
  4.2729E-07
  1.5963E-06
  1.5963E-06
  1.5963E-06
  1.5963E-06
  1.5963E-06
  1.5963E-06
  1.5963E-06
  1.5963E-06
  1.5963E-06
  5.9636E-06
  5.9636E-06
  5.9636E-06
  5.9636E-06
  5.9636E-06
  5.9636E-06
  5.9636E-06
  5.9636E-06
  5.9636E-06
  2.2279E-05
  2.2279E-05
  2.2279E-05
  2.2279E-05
  2.2279E-05
  2.2279E-05
  2.2279E-05
  2.2279E-05
  2.2279E-05
  8.3232E-05
  8.3232E-05
  8.3232E-05
  8.3232E-05
  8.3232E-05
  8.3232E-05
  8.3232E-05
  8.3232E-05
  8.3232E-05
  3.1095E-04
  3.1095E-04
  3.1095E-04
  3.1095E-04
  3.1095E-04
  3.1095E-04
  3.1095E-04
  3.1095E-04
  3.1095E-04
  1.1617E-03
  1.1617E-03
  1.1617E-03
  1.1617E-03
  1.1617E-03
  1.1617E-03
  1.1617E-03
  1.1617E-03
  1.1617E-03
  4.3398E-03
  4.3398E-03
  4.3398E-03
  4.3398E-03
  4.3398E-03
  4.3398E-03
  4.3398E-03
  4.3398E-03
  4.3398E-03
  1.6213E-02
  1.6213E-02
  1.6213E-02
  1.6213E-02
  1.6213E-02
  1.6213E-02
  1.6213E-02
  1.6213E-02
  1.6213E-02
  6.0569E-02
  6.0569E-02
  6.0569E-02
  6.0569E-02
  6.0569E-02
  6.0569E-02
  6.0569E-02
  6.0569E-02
  6.0569E-02
  2.2628E-01
  2.2628E-01
  2.2628E-01
  2.2628E-01
  2.2628E-01
  2.2628E-01
  2.2628E-01
  2.2628E-01
  2.2628E-01
  8.4534E-01
  8.4534E-01
  8.4534E-01
  8.4534E-01
  8.4534E-01
  8.4534E-01
  8.4534E-01
  8.4534E-01
  8.4534E-01
  1.3337E+00
  1.3337E+00
  1.3337E+00
  1.3337E+00
  1.3337E+00
  1.3337E+00
  1.3337E+00
  1.3337E+00
  1.3337E+00
   2.7600E-02
  1.3085E-11
  1.3085E-11
  1.3085E-11
  1.3085E-11
  1.3085E-11
  1.3085E-11
  1.3085E-11
  1.3085E-11
  1.3085E-11
  3.9322E-11
  3.9322E-11
  3.9322E-11
  3.9322E-11
  3.9322E-11
  3.9322E-11
  3.9322E-11
  3.9322E-11
  3.9322E-11
  1.5747E-10
  1.5747E-10
  1.5747E-10
  1.5747E-10
  1.5747E-10
  1.5747E-10
  1.5747E-10
  1.5747E-10
  1.5747E-10
  5.9113E-10
  5.9113E-10
  5.9113E-10
  5.9113E-10
  5.9113E-10
  5.9113E-10
  5.9113E-10
  5.9113E-10
  5.9113E-10
  2.2092E-09
  2.2092E-09
  2.2092E-09
  2.2092E-09
  2.2092E-09
  2.2092E-09
  2.2092E-09
  2.2092E-09
  2.2092E-09
  8.2536E-09
  8.2536E-09
  8.2536E-09
  8.2536E-09
  8.2536E-09
  8.2536E-09
  8.2536E-09
  8.2536E-09
  8.2536E-09
  3.0835E-08
  3.0835E-08
  3.0835E-08
  3.0835E-08
  3.0835E-08
  3.0835E-08
  3.0835E-08
  3.0835E-08
  3.0835E-08
  1.1520E-07
  1.1520E-07
  1.1520E-07
  1.1520E-07
  1.1520E-07
  1.1520E-07
  1.1520E-07
  1.1520E-07
  1.1520E-07
  4.3036E-07
  4.3036E-07
  4.3036E-07
  4.3036E-07
  4.3036E-07
  4.3036E-07
  4.3036E-07
  4.3036E-07
  4.3036E-07
  1.6078E-06
  1.6078E-06
  1.6078E-06
  1.6078E-06
  1.6078E-06
  1.6078E-06
  1.6078E-06
  1.6078E-06
  1.6078E-06
  6.0066E-06
  6.0066E-06
  6.0066E-06
  6.0066E-06
  6.0066E-06
  6.0066E-06
  6.0066E-06
  6.0066E-06
  6.0066E-06
  2.2440E-05
  2.2440E-05
  2.2440E-05
  2.2440E-05
  2.2440E-05
  2.2440E-05
  2.2440E-05
  2.2440E-05
  2.2440E-05
  8.3834E-05
  8.3834E-05
  8.3834E-05
  8.3834E-05
  8.3834E-05
  8.3834E-05
  8.3834E-05
  8.3834E-05
  8.3834E-05
  3.1319E-04
  3.1319E-04
  3.1319E-04
  3.1319E-04
  3.1319E-04
  3.1319E-04
  3.1319E-04
  3.1319E-04
  3.1319E-04
  1.1701E-03
  1.1701E-03
  1.1701E-03
  1.1701E-03
  1.1701E-03
  1.1701E-03
  1.1701E-03
  1.1701E-03
  1.1701E-03
  4.3712E-03
  4.3712E-03
  4.3712E-03
  4.3712E-03
  4.3712E-03
  4.3712E-03
  4.3712E-03
  4.3712E-03
  4.3712E-03
  1.6330E-02
  1.6330E-02
  1.6330E-02
  1.6330E-02
  1.6330E-02
  1.6330E-02
  1.6330E-02
  1.6330E-02
  1.6330E-02
  6.1009E-02
  6.1009E-02
  6.1009E-02
  6.1009E-02
  6.1009E-02
  6.1009E-02
  6.1009E-02
  6.1009E-02
  6.1009E-02
  2.2792E-01
  2.2792E-01
  2.2792E-01
  2.2792E-01
  2.2792E-01
  2.2792E-01
  2.2792E-01
  2.2792E-01
  2.2792E-01
  8.5149E-01
  8.5149E-01
  8.5149E-01
  8.5149E-01
  8.5149E-01
  8.5149E-01
  8.5149E-01
  8.5149E-01
  8.5149E-01
  1.3434E+00
  1.3434E+00
  1.3434E+00
  1.3434E+00
  1.3434E+00
  1.3434E+00
  1.3434E+00
  1.3434E+00
  1.3434E+00
   2.7700E-02
  1.3177E-11
  1.3177E-11
  1.3177E-11
  1.3177E-11
  1.3177E-11
  1.3177E-11
  1.3177E-11
  1.3177E-11
  1.3177E-11
  3.9601E-11
  3.9601E-11
  3.9601E-11
  3.9601E-11
  3.9601E-11
  3.9601E-11
  3.9601E-11
  3.9601E-11
  3.9601E-11
  1.5859E-10
  1.5859E-10
  1.5859E-10
  1.5859E-10
  1.5859E-10
  1.5859E-10
  1.5859E-10
  1.5859E-10
  1.5859E-10
  5.9535E-10
  5.9535E-10
  5.9535E-10
  5.9535E-10
  5.9535E-10
  5.9535E-10
  5.9535E-10
  5.9535E-10
  5.9535E-10
  2.2250E-09
  2.2250E-09
  2.2250E-09
  2.2250E-09
  2.2250E-09
  2.2250E-09
  2.2250E-09
  2.2250E-09
  2.2250E-09
  8.3126E-09
  8.3126E-09
  8.3126E-09
  8.3126E-09
  8.3126E-09
  8.3126E-09
  8.3126E-09
  8.3126E-09
  8.3126E-09
  3.1055E-08
  3.1055E-08
  3.1055E-08
  3.1055E-08
  3.1055E-08
  3.1055E-08
  3.1055E-08
  3.1055E-08
  3.1055E-08
  1.1602E-07
  1.1602E-07
  1.1602E-07
  1.1602E-07
  1.1602E-07
  1.1602E-07
  1.1602E-07
  1.1602E-07
  1.1602E-07
  4.3345E-07
  4.3345E-07
  4.3345E-07
  4.3345E-07
  4.3345E-07
  4.3345E-07
  4.3345E-07
  4.3345E-07
  4.3345E-07
  1.6193E-06
  1.6193E-06
  1.6193E-06
  1.6193E-06
  1.6193E-06
  1.6193E-06
  1.6193E-06
  1.6193E-06
  1.6193E-06
  6.0497E-06
  6.0497E-06
  6.0497E-06
  6.0497E-06
  6.0497E-06
  6.0497E-06
  6.0497E-06
  6.0497E-06
  6.0497E-06
  2.2601E-05
  2.2601E-05
  2.2601E-05
  2.2601E-05
  2.2601E-05
  2.2601E-05
  2.2601E-05
  2.2601E-05
  2.2601E-05
  8.4437E-05
  8.4437E-05
  8.4437E-05
  8.4437E-05
  8.4437E-05
  8.4437E-05
  8.4437E-05
  8.4437E-05
  8.4437E-05
  3.1545E-04
  3.1545E-04
  3.1545E-04
  3.1545E-04
  3.1545E-04
  3.1545E-04
  3.1545E-04
  3.1545E-04
  3.1545E-04
  1.1785E-03
  1.1785E-03
  1.1785E-03
  1.1785E-03
  1.1785E-03
  1.1785E-03
  1.1785E-03
  1.1785E-03
  1.1785E-03
  4.4028E-03
  4.4028E-03
  4.4028E-03
  4.4028E-03
  4.4028E-03
  4.4028E-03
  4.4028E-03
  4.4028E-03
  4.4028E-03
  1.6449E-02
  1.6449E-02
  1.6449E-02
  1.6449E-02
  1.6449E-02
  1.6449E-02
  1.6449E-02
  1.6449E-02
  1.6449E-02
  6.1451E-02
  6.1451E-02
  6.1451E-02
  6.1451E-02
  6.1451E-02
  6.1451E-02
  6.1451E-02
  6.1451E-02
  6.1451E-02
  2.2957E-01
  2.2957E-01
  2.2957E-01
  2.2957E-01
  2.2957E-01
  2.2957E-01
  2.2957E-01
  2.2957E-01
  2.2957E-01
  8.5767E-01
  8.5767E-01
  8.5767E-01
  8.5767E-01
  8.5767E-01
  8.5767E-01
  8.5767E-01
  8.5767E-01
  8.5767E-01
  1.3531E+00
  1.3531E+00
  1.3531E+00
  1.3531E+00
  1.3531E+00
  1.3531E+00
  1.3531E+00
  1.3531E+00
  1.3531E+00
   2.7800E-02
  1.3271E-11
  1.3271E-11
  1.3271E-11
  1.3271E-11
  1.3271E-11
  1.3271E-11
  1.3271E-11
  1.3271E-11
  1.3271E-11
  3.9882E-11
  3.9882E-11
  3.9882E-11
  3.9882E-11
  3.9882E-11
  3.9882E-11
  3.9882E-11
  3.9882E-11
  3.9882E-11
  1.5972E-10
  1.5972E-10
  1.5972E-10
  1.5972E-10
  1.5972E-10
  1.5972E-10
  1.5972E-10
  1.5972E-10
  1.5972E-10
  5.9958E-10
  5.9958E-10
  5.9958E-10
  5.9958E-10
  5.9958E-10
  5.9958E-10
  5.9958E-10
  5.9958E-10
  5.9958E-10
  2.2408E-09
  2.2408E-09
  2.2408E-09
  2.2408E-09
  2.2408E-09
  2.2408E-09
  2.2408E-09
  2.2408E-09
  2.2408E-09
  8.3717E-09
  8.3717E-09
  8.3717E-09
  8.3717E-09
  8.3717E-09
  8.3717E-09
  8.3717E-09
  8.3717E-09
  8.3717E-09
  3.1277E-08
  3.1277E-08
  3.1277E-08
  3.1277E-08
  3.1277E-08
  3.1277E-08
  3.1277E-08
  3.1277E-08
  3.1277E-08
  1.1685E-07
  1.1685E-07
  1.1685E-07
  1.1685E-07
  1.1685E-07
  1.1685E-07
  1.1685E-07
  1.1685E-07
  1.1685E-07
  4.3654E-07
  4.3654E-07
  4.3654E-07
  4.3654E-07
  4.3654E-07
  4.3654E-07
  4.3654E-07
  4.3654E-07
  4.3654E-07
  1.6309E-06
  1.6309E-06
  1.6309E-06
  1.6309E-06
  1.6309E-06
  1.6309E-06
  1.6309E-06
  1.6309E-06
  1.6309E-06
  6.0930E-06
  6.0930E-06
  6.0930E-06
  6.0930E-06
  6.0930E-06
  6.0930E-06
  6.0930E-06
  6.0930E-06
  6.0930E-06
  2.2763E-05
  2.2763E-05
  2.2763E-05
  2.2763E-05
  2.2763E-05
  2.2763E-05
  2.2763E-05
  2.2763E-05
  2.2763E-05
  8.5043E-05
  8.5043E-05
  8.5043E-05
  8.5043E-05
  8.5043E-05
  8.5043E-05
  8.5043E-05
  8.5043E-05
  8.5043E-05
  3.1772E-04
  3.1772E-04
  3.1772E-04
  3.1772E-04
  3.1772E-04
  3.1772E-04
  3.1772E-04
  3.1772E-04
  3.1772E-04
  1.1870E-03
  1.1870E-03
  1.1870E-03
  1.1870E-03
  1.1870E-03
  1.1870E-03
  1.1870E-03
  1.1870E-03
  1.1870E-03
  4.4345E-03
  4.4345E-03
  4.4345E-03
  4.4345E-03
  4.4345E-03
  4.4345E-03
  4.4345E-03
  4.4345E-03
  4.4345E-03
  1.6567E-02
  1.6567E-02
  1.6567E-02
  1.6567E-02
  1.6567E-02
  1.6567E-02
  1.6567E-02
  1.6567E-02
  1.6567E-02
  6.1894E-02
  6.1894E-02
  6.1894E-02
  6.1894E-02
  6.1894E-02
  6.1894E-02
  6.1894E-02
  6.1894E-02
  6.1894E-02
  2.3123E-01
  2.3123E-01
  2.3123E-01
  2.3123E-01
  2.3123E-01
  2.3123E-01
  2.3123E-01
  2.3123E-01
  2.3123E-01
  8.6387E-01
  8.6387E-01
  8.6387E-01
  8.6387E-01
  8.6387E-01
  8.6387E-01
  8.6387E-01
  8.6387E-01
  8.6387E-01
  1.3629E+00
  1.3629E+00
  1.3629E+00
  1.3629E+00
  1.3629E+00
  1.3629E+00
  1.3629E+00
  1.3629E+00
  1.3629E+00
   2.7900E-02
  1.3364E-11
  1.3364E-11
  1.3364E-11
  1.3364E-11
  1.3364E-11
  1.3364E-11
  1.3364E-11
  1.3364E-11
  1.3364E-11
  4.0164E-11
  4.0164E-11
  4.0164E-11
  4.0164E-11
  4.0164E-11
  4.0164E-11
  4.0164E-11
  4.0164E-11
  4.0164E-11
  1.6085E-10
  1.6085E-10
  1.6085E-10
  1.6085E-10
  1.6085E-10
  1.6085E-10
  1.6085E-10
  1.6085E-10
  1.6085E-10
  6.0382E-10
  6.0382E-10
  6.0382E-10
  6.0382E-10
  6.0382E-10
  6.0382E-10
  6.0382E-10
  6.0382E-10
  6.0382E-10
  2.2567E-09
  2.2567E-09
  2.2567E-09
  2.2567E-09
  2.2567E-09
  2.2567E-09
  2.2567E-09
  2.2567E-09
  2.2567E-09
  8.4311E-09
  8.4311E-09
  8.4311E-09
  8.4311E-09
  8.4311E-09
  8.4311E-09
  8.4311E-09
  8.4311E-09
  8.4311E-09
  3.1499E-08
  3.1499E-08
  3.1499E-08
  3.1499E-08
  3.1499E-08
  3.1499E-08
  3.1499E-08
  3.1499E-08
  3.1499E-08
  1.1768E-07
  1.1768E-07
  1.1768E-07
  1.1768E-07
  1.1768E-07
  1.1768E-07
  1.1768E-07
  1.1768E-07
  1.1768E-07
  4.3965E-07
  4.3965E-07
  4.3965E-07
  4.3965E-07
  4.3965E-07
  4.3965E-07
  4.3965E-07
  4.3965E-07
  4.3965E-07
  1.6425E-06
  1.6425E-06
  1.6425E-06
  1.6425E-06
  1.6425E-06
  1.6425E-06
  1.6425E-06
  1.6425E-06
  1.6425E-06
  6.1365E-06
  6.1365E-06
  6.1365E-06
  6.1365E-06
  6.1365E-06
  6.1365E-06
  6.1365E-06
  6.1365E-06
  6.1365E-06
  2.2926E-05
  2.2926E-05
  2.2926E-05
  2.2926E-05
  2.2926E-05
  2.2926E-05
  2.2926E-05
  2.2926E-05
  2.2926E-05
  8.5651E-05
  8.5651E-05
  8.5651E-05
  8.5651E-05
  8.5651E-05
  8.5651E-05
  8.5651E-05
  8.5651E-05
  8.5651E-05
  3.1999E-04
  3.1999E-04
  3.1999E-04
  3.1999E-04
  3.1999E-04
  3.1999E-04
  3.1999E-04
  3.1999E-04
  3.1999E-04
  1.1955E-03
  1.1955E-03
  1.1955E-03
  1.1955E-03
  1.1955E-03
  1.1955E-03
  1.1955E-03
  1.1955E-03
  1.1955E-03
  4.4663E-03
  4.4663E-03
  4.4663E-03
  4.4663E-03
  4.4663E-03
  4.4663E-03
  4.4663E-03
  4.4663E-03
  4.4663E-03
  1.6686E-02
  1.6686E-02
  1.6686E-02
  1.6686E-02
  1.6686E-02
  1.6686E-02
  1.6686E-02
  1.6686E-02
  1.6686E-02
  6.2339E-02
  6.2339E-02
  6.2339E-02
  6.2339E-02
  6.2339E-02
  6.2339E-02
  6.2339E-02
  6.2339E-02
  6.2339E-02
  2.3290E-01
  2.3290E-01
  2.3290E-01
  2.3290E-01
  2.3290E-01
  2.3290E-01
  2.3290E-01
  2.3290E-01
  2.3290E-01
  8.7009E-01
  8.7009E-01
  8.7009E-01
  8.7009E-01
  8.7009E-01
  8.7009E-01
  8.7009E-01
  8.7009E-01
  8.7009E-01
  1.3727E+00
  1.3727E+00
  1.3727E+00
  1.3727E+00
  1.3727E+00
  1.3727E+00
  1.3727E+00
  1.3727E+00
  1.3727E+00
   2.8000E-02
  1.3458E-11
  1.3458E-11
  1.3458E-11
  1.3458E-11
  1.3458E-11
  1.3458E-11
  1.3458E-11
  1.3458E-11
  1.3458E-11
  4.0446E-11
  4.0446E-11
  4.0446E-11
  4.0446E-11
  4.0446E-11
  4.0446E-11
  4.0446E-11
  4.0446E-11
  4.0446E-11
  1.6198E-10
  1.6198E-10
  1.6198E-10
  1.6198E-10
  1.6198E-10
  1.6198E-10
  1.6198E-10
  1.6198E-10
  1.6198E-10
  6.0808E-10
  6.0808E-10
  6.0808E-10
  6.0808E-10
  6.0808E-10
  6.0808E-10
  6.0808E-10
  6.0808E-10
  6.0808E-10
  2.2726E-09
  2.2726E-09
  2.2726E-09
  2.2726E-09
  2.2726E-09
  2.2726E-09
  2.2726E-09
  2.2726E-09
  2.2726E-09
  8.4907E-09
  8.4907E-09
  8.4907E-09
  8.4907E-09
  8.4907E-09
  8.4907E-09
  8.4907E-09
  8.4907E-09
  8.4907E-09
  3.1722E-08
  3.1722E-08
  3.1722E-08
  3.1722E-08
  3.1722E-08
  3.1722E-08
  3.1722E-08
  3.1722E-08
  3.1722E-08
  1.1851E-07
  1.1851E-07
  1.1851E-07
  1.1851E-07
  1.1851E-07
  1.1851E-07
  1.1851E-07
  1.1851E-07
  1.1851E-07
  4.4277E-07
  4.4277E-07
  4.4277E-07
  4.4277E-07
  4.4277E-07
  4.4277E-07
  4.4277E-07
  4.4277E-07
  4.4277E-07
  1.6542E-06
  1.6542E-06
  1.6542E-06
  1.6542E-06
  1.6542E-06
  1.6542E-06
  1.6542E-06
  1.6542E-06
  1.6542E-06
  6.1801E-06
  6.1801E-06
  6.1801E-06
  6.1801E-06
  6.1801E-06
  6.1801E-06
  6.1801E-06
  6.1801E-06
  6.1801E-06
  2.3089E-05
  2.3089E-05
  2.3089E-05
  2.3089E-05
  2.3089E-05
  2.3089E-05
  2.3089E-05
  2.3089E-05
  2.3089E-05
  8.6261E-05
  8.6261E-05
  8.6261E-05
  8.6261E-05
  8.6261E-05
  8.6261E-05
  8.6261E-05
  8.6261E-05
  8.6261E-05
  3.2227E-04
  3.2227E-04
  3.2227E-04
  3.2227E-04
  3.2227E-04
  3.2227E-04
  3.2227E-04
  3.2227E-04
  3.2227E-04
  1.2040E-03
  1.2040E-03
  1.2040E-03
  1.2040E-03
  1.2040E-03
  1.2040E-03
  1.2040E-03
  1.2040E-03
  1.2040E-03
  4.4982E-03
  4.4982E-03
  4.4982E-03
  4.4982E-03
  4.4982E-03
  4.4982E-03
  4.4982E-03
  4.4982E-03
  4.4982E-03
  1.6805E-02
  1.6805E-02
  1.6805E-02
  1.6805E-02
  1.6805E-02
  1.6805E-02
  1.6805E-02
  1.6805E-02
  1.6805E-02
  6.2785E-02
  6.2785E-02
  6.2785E-02
  6.2785E-02
  6.2785E-02
  6.2785E-02
  6.2785E-02
  6.2785E-02
  6.2785E-02
  2.3456E-01
  2.3456E-01
  2.3456E-01
  2.3456E-01
  2.3456E-01
  2.3456E-01
  2.3456E-01
  2.3456E-01
  2.3456E-01
  8.7633E-01
  8.7633E-01
  8.7633E-01
  8.7633E-01
  8.7633E-01
  8.7633E-01
  8.7633E-01
  8.7633E-01
  8.7633E-01
  1.3826E+00
  1.3826E+00
  1.3826E+00
  1.3826E+00
  1.3826E+00
  1.3826E+00
  1.3826E+00
  1.3826E+00
  1.3826E+00
   2.8100E-02
  1.3552E-11
  1.3552E-11
  1.3552E-11
  1.3552E-11
  1.3552E-11
  1.3552E-11
  1.3552E-11
  1.3552E-11
  1.3552E-11
  4.0730E-11
  4.0730E-11
  4.0730E-11
  4.0730E-11
  4.0730E-11
  4.0730E-11
  4.0730E-11
  4.0730E-11
  4.0730E-11
  1.6312E-10
  1.6312E-10
  1.6312E-10
  1.6312E-10
  1.6312E-10
  1.6312E-10
  1.6312E-10
  1.6312E-10
  1.6312E-10
  6.1236E-10
  6.1236E-10
  6.1236E-10
  6.1236E-10
  6.1236E-10
  6.1236E-10
  6.1236E-10
  6.1236E-10
  6.1236E-10
  2.2886E-09
  2.2886E-09
  2.2886E-09
  2.2886E-09
  2.2886E-09
  2.2886E-09
  2.2886E-09
  2.2886E-09
  2.2886E-09
  8.5505E-09
  8.5505E-09
  8.5505E-09
  8.5505E-09
  8.5505E-09
  8.5505E-09
  8.5505E-09
  8.5505E-09
  8.5505E-09
  3.1945E-08
  3.1945E-08
  3.1945E-08
  3.1945E-08
  3.1945E-08
  3.1945E-08
  3.1945E-08
  3.1945E-08
  3.1945E-08
  1.1935E-07
  1.1935E-07
  1.1935E-07
  1.1935E-07
  1.1935E-07
  1.1935E-07
  1.1935E-07
  1.1935E-07
  1.1935E-07
  4.4590E-07
  4.4590E-07
  4.4590E-07
  4.4590E-07
  4.4590E-07
  4.4590E-07
  4.4590E-07
  4.4590E-07
  4.4590E-07
  1.6659E-06
  1.6659E-06
  1.6659E-06
  1.6659E-06
  1.6659E-06
  1.6659E-06
  1.6659E-06
  1.6659E-06
  1.6659E-06
  6.2239E-06
  6.2239E-06
  6.2239E-06
  6.2239E-06
  6.2239E-06
  6.2239E-06
  6.2239E-06
  6.2239E-06
  6.2239E-06
  2.3253E-05
  2.3253E-05
  2.3253E-05
  2.3253E-05
  2.3253E-05
  2.3253E-05
  2.3253E-05
  2.3253E-05
  2.3253E-05
  8.6873E-05
  8.6873E-05
  8.6873E-05
  8.6873E-05
  8.6873E-05
  8.6873E-05
  8.6873E-05
  8.6873E-05
  8.6873E-05
  3.2456E-04
  3.2456E-04
  3.2456E-04
  3.2456E-04
  3.2456E-04
  3.2456E-04
  3.2456E-04
  3.2456E-04
  3.2456E-04
  1.2126E-03
  1.2126E-03
  1.2126E-03
  1.2126E-03
  1.2126E-03
  1.2126E-03
  1.2126E-03
  1.2126E-03
  1.2126E-03
  4.5302E-03
  4.5302E-03
  4.5302E-03
  4.5302E-03
  4.5302E-03
  4.5302E-03
  4.5302E-03
  4.5302E-03
  4.5302E-03
  1.6925E-02
  1.6925E-02
  1.6925E-02
  1.6925E-02
  1.6925E-02
  1.6925E-02
  1.6925E-02
  1.6925E-02
  1.6925E-02
  6.3233E-02
  6.3233E-02
  6.3233E-02
  6.3233E-02
  6.3233E-02
  6.3233E-02
  6.3233E-02
  6.3233E-02
  6.3233E-02
  2.3624E-01
  2.3624E-01
  2.3624E-01
  2.3624E-01
  2.3624E-01
  2.3624E-01
  2.3624E-01
  2.3624E-01
  2.3624E-01
  8.8260E-01
  8.8260E-01
  8.8260E-01
  8.8260E-01
  8.8260E-01
  8.8260E-01
  8.8260E-01
  8.8260E-01
  8.8260E-01
  1.3925E+00
  1.3925E+00
  1.3925E+00
  1.3925E+00
  1.3925E+00
  1.3925E+00
  1.3925E+00
  1.3925E+00
  1.3925E+00
   2.8200E-02
  1.3647E-11
  1.3647E-11
  1.3647E-11
  1.3647E-11
  1.3647E-11
  1.3647E-11
  1.3647E-11
  1.3647E-11
  1.3647E-11
  4.1014E-11
  4.1014E-11
  4.1014E-11
  4.1014E-11
  4.1014E-11
  4.1014E-11
  4.1014E-11
  4.1014E-11
  4.1014E-11
  1.6426E-10
  1.6426E-10
  1.6426E-10
  1.6426E-10
  1.6426E-10
  1.6426E-10
  1.6426E-10
  1.6426E-10
  1.6426E-10
  6.1664E-10
  6.1664E-10
  6.1664E-10
  6.1664E-10
  6.1664E-10
  6.1664E-10
  6.1664E-10
  6.1664E-10
  6.1664E-10
  2.3046E-09
  2.3046E-09
  2.3046E-09
  2.3046E-09
  2.3046E-09
  2.3046E-09
  2.3046E-09
  2.3046E-09
  2.3046E-09
  8.6105E-09
  8.6105E-09
  8.6105E-09
  8.6105E-09
  8.6105E-09
  8.6105E-09
  8.6105E-09
  8.6105E-09
  8.6105E-09
  3.2170E-08
  3.2170E-08
  3.2170E-08
  3.2170E-08
  3.2170E-08
  3.2170E-08
  3.2170E-08
  3.2170E-08
  3.2170E-08
  1.2019E-07
  1.2019E-07
  1.2019E-07
  1.2019E-07
  1.2019E-07
  1.2019E-07
  1.2019E-07
  1.2019E-07
  1.2019E-07
  4.4904E-07
  4.4904E-07
  4.4904E-07
  4.4904E-07
  4.4904E-07
  4.4904E-07
  4.4904E-07
  4.4904E-07
  4.4904E-07
  1.6776E-06
  1.6776E-06
  1.6776E-06
  1.6776E-06
  1.6776E-06
  1.6776E-06
  1.6776E-06
  1.6776E-06
  1.6776E-06
  6.2678E-06
  6.2678E-06
  6.2678E-06
  6.2678E-06
  6.2678E-06
  6.2678E-06
  6.2678E-06
  6.2678E-06
  6.2678E-06
  2.3417E-05
  2.3417E-05
  2.3417E-05
  2.3417E-05
  2.3417E-05
  2.3417E-05
  2.3417E-05
  2.3417E-05
  2.3417E-05
  8.7487E-05
  8.7487E-05
  8.7487E-05
  8.7487E-05
  8.7487E-05
  8.7487E-05
  8.7487E-05
  8.7487E-05
  8.7487E-05
  3.2686E-04
  3.2686E-04
  3.2686E-04
  3.2686E-04
  3.2686E-04
  3.2686E-04
  3.2686E-04
  3.2686E-04
  3.2686E-04
  1.2212E-03
  1.2212E-03
  1.2212E-03
  1.2212E-03
  1.2212E-03
  1.2212E-03
  1.2212E-03
  1.2212E-03
  1.2212E-03
  4.5624E-03
  4.5624E-03
  4.5624E-03
  4.5624E-03
  4.5624E-03
  4.5624E-03
  4.5624E-03
  4.5624E-03
  4.5624E-03
  1.7045E-02
  1.7045E-02
  1.7045E-02
  1.7045E-02
  1.7045E-02
  1.7045E-02
  1.7045E-02
  1.7045E-02
  1.7045E-02
  6.3682E-02
  6.3682E-02
  6.3682E-02
  6.3682E-02
  6.3682E-02
  6.3682E-02
  6.3682E-02
  6.3682E-02
  6.3682E-02
  2.3792E-01
  2.3792E-01
  2.3792E-01
  2.3792E-01
  2.3792E-01
  2.3792E-01
  2.3792E-01
  2.3792E-01
  2.3792E-01
  8.8889E-01
  8.8889E-01
  8.8889E-01
  8.8889E-01
  8.8889E-01
  8.8889E-01
  8.8889E-01
  8.8889E-01
  8.8889E-01
  1.4024E+00
  1.4024E+00
  1.4024E+00
  1.4024E+00
  1.4024E+00
  1.4024E+00
  1.4024E+00
  1.4024E+00
  1.4024E+00
   2.8300E-02
  1.3741E-11
  1.3741E-11
  1.3741E-11
  1.3741E-11
  1.3741E-11
  1.3741E-11
  1.3741E-11
  1.3741E-11
  1.3741E-11
  4.1300E-11
  4.1300E-11
  4.1300E-11
  4.1300E-11
  4.1300E-11
  4.1300E-11
  4.1300E-11
  4.1300E-11
  4.1300E-11
  1.6540E-10
  1.6540E-10
  1.6540E-10
  1.6540E-10
  1.6540E-10
  1.6540E-10
  1.6540E-10
  1.6540E-10
  1.6540E-10
  6.2094E-10
  6.2094E-10
  6.2094E-10
  6.2094E-10
  6.2094E-10
  6.2094E-10
  6.2094E-10
  6.2094E-10
  6.2094E-10
  2.3207E-09
  2.3207E-09
  2.3207E-09
  2.3207E-09
  2.3207E-09
  2.3207E-09
  2.3207E-09
  2.3207E-09
  2.3207E-09
  8.6707E-09
  8.6707E-09
  8.6707E-09
  8.6707E-09
  8.6707E-09
  8.6707E-09
  8.6707E-09
  8.6707E-09
  8.6707E-09
  3.2395E-08
  3.2395E-08
  3.2395E-08
  3.2395E-08
  3.2395E-08
  3.2395E-08
  3.2395E-08
  3.2395E-08
  3.2395E-08
  1.2103E-07
  1.2103E-07
  1.2103E-07
  1.2103E-07
  1.2103E-07
  1.2103E-07
  1.2103E-07
  1.2103E-07
  1.2103E-07
  4.5218E-07
  4.5218E-07
  4.5218E-07
  4.5218E-07
  4.5218E-07
  4.5218E-07
  4.5218E-07
  4.5218E-07
  4.5218E-07
  1.6894E-06
  1.6894E-06
  1.6894E-06
  1.6894E-06
  1.6894E-06
  1.6894E-06
  1.6894E-06
  1.6894E-06
  1.6894E-06
  6.3118E-06
  6.3118E-06
  6.3118E-06
  6.3118E-06
  6.3118E-06
  6.3118E-06
  6.3118E-06
  6.3118E-06
  6.3118E-06
  2.3582E-05
  2.3582E-05
  2.3582E-05
  2.3582E-05
  2.3582E-05
  2.3582E-05
  2.3582E-05
  2.3582E-05
  2.3582E-05
  8.8104E-05
  8.8104E-05
  8.8104E-05
  8.8104E-05
  8.8104E-05
  8.8104E-05
  8.8104E-05
  8.8104E-05
  8.8104E-05
  3.2916E-04
  3.2916E-04
  3.2916E-04
  3.2916E-04
  3.2916E-04
  3.2916E-04
  3.2916E-04
  3.2916E-04
  3.2916E-04
  1.2298E-03
  1.2298E-03
  1.2298E-03
  1.2298E-03
  1.2298E-03
  1.2298E-03
  1.2298E-03
  1.2298E-03
  1.2298E-03
  4.5946E-03
  4.5946E-03
  4.5946E-03
  4.5946E-03
  4.5946E-03
  4.5946E-03
  4.5946E-03
  4.5946E-03
  4.5946E-03
  1.7166E-02
  1.7166E-02
  1.7166E-02
  1.7166E-02
  1.7166E-02
  1.7166E-02
  1.7166E-02
  1.7166E-02
  1.7166E-02
  6.4133E-02
  6.4133E-02
  6.4133E-02
  6.4133E-02
  6.4133E-02
  6.4133E-02
  6.4133E-02
  6.4133E-02
  6.4133E-02
  2.3961E-01
  2.3961E-01
  2.3961E-01
  2.3961E-01
  2.3961E-01
  2.3961E-01
  2.3961E-01
  2.3961E-01
  2.3961E-01
  8.9520E-01
  8.9520E-01
  8.9520E-01
  8.9520E-01
  8.9520E-01
  8.9520E-01
  8.9520E-01
  8.9520E-01
  8.9520E-01
  1.4124E+00
  1.4124E+00
  1.4124E+00
  1.4124E+00
  1.4124E+00
  1.4124E+00
  1.4124E+00
  1.4124E+00
  1.4124E+00
   2.8400E-02
  1.3837E-11
  1.3837E-11
  1.3837E-11
  1.3837E-11
  1.3837E-11
  1.3837E-11
  1.3837E-11
  1.3837E-11
  1.3837E-11
  4.1586E-11
  4.1586E-11
  4.1586E-11
  4.1586E-11
  4.1586E-11
  4.1586E-11
  4.1586E-11
  4.1586E-11
  4.1586E-11
  1.6655E-10
  1.6655E-10
  1.6655E-10
  1.6655E-10
  1.6655E-10
  1.6655E-10
  1.6655E-10
  1.6655E-10
  1.6655E-10
  6.2526E-10
  6.2526E-10
  6.2526E-10
  6.2526E-10
  6.2526E-10
  6.2526E-10
  6.2526E-10
  6.2526E-10
  6.2526E-10
  2.3369E-09
  2.3369E-09
  2.3369E-09
  2.3369E-09
  2.3369E-09
  2.3369E-09
  2.3369E-09
  2.3369E-09
  2.3369E-09
  8.7311E-09
  8.7311E-09
  8.7311E-09
  8.7311E-09
  8.7311E-09
  8.7311E-09
  8.7311E-09
  8.7311E-09
  8.7311E-09
  3.2621E-08
  3.2621E-08
  3.2621E-08
  3.2621E-08
  3.2621E-08
  3.2621E-08
  3.2621E-08
  3.2621E-08
  3.2621E-08
  1.2188E-07
  1.2188E-07
  1.2188E-07
  1.2188E-07
  1.2188E-07
  1.2188E-07
  1.2188E-07
  1.2188E-07
  1.2188E-07
  4.5534E-07
  4.5534E-07
  4.5534E-07
  4.5534E-07
  4.5534E-07
  4.5534E-07
  4.5534E-07
  4.5534E-07
  4.5534E-07
  1.7012E-06
  1.7012E-06
  1.7012E-06
  1.7012E-06
  1.7012E-06
  1.7012E-06
  1.7012E-06
  1.7012E-06
  1.7012E-06
  6.3560E-06
  6.3560E-06
  6.3560E-06
  6.3560E-06
  6.3560E-06
  6.3560E-06
  6.3560E-06
  6.3560E-06
  6.3560E-06
  2.3747E-05
  2.3747E-05
  2.3747E-05
  2.3747E-05
  2.3747E-05
  2.3747E-05
  2.3747E-05
  2.3747E-05
  2.3747E-05
  8.8722E-05
  8.8722E-05
  8.8722E-05
  8.8722E-05
  8.8722E-05
  8.8722E-05
  8.8722E-05
  8.8722E-05
  8.8722E-05
  3.3148E-04
  3.3148E-04
  3.3148E-04
  3.3148E-04
  3.3148E-04
  3.3148E-04
  3.3148E-04
  3.3148E-04
  3.3148E-04
  1.2384E-03
  1.2384E-03
  1.2384E-03
  1.2384E-03
  1.2384E-03
  1.2384E-03
  1.2384E-03
  1.2384E-03
  1.2384E-03
  4.6270E-03
  4.6270E-03
  4.6270E-03
  4.6270E-03
  4.6270E-03
  4.6270E-03
  4.6270E-03
  4.6270E-03
  4.6270E-03
  1.7287E-02
  1.7287E-02
  1.7287E-02
  1.7287E-02
  1.7287E-02
  1.7287E-02
  1.7287E-02
  1.7287E-02
  1.7287E-02
  6.4586E-02
  6.4586E-02
  6.4586E-02
  6.4586E-02
  6.4586E-02
  6.4586E-02
  6.4586E-02
  6.4586E-02
  6.4586E-02
  2.4130E-01
  2.4130E-01
  2.4130E-01
  2.4130E-01
  2.4130E-01
  2.4130E-01
  2.4130E-01
  2.4130E-01
  2.4130E-01
  9.0153E-01
  9.0153E-01
  9.0153E-01
  9.0153E-01
  9.0153E-01
  9.0153E-01
  9.0153E-01
  9.0153E-01
  9.0153E-01
  1.4224E+00
  1.4224E+00
  1.4224E+00
  1.4224E+00
  1.4224E+00
  1.4224E+00
  1.4224E+00
  1.4224E+00
  1.4224E+00
   2.8500E-02
  1.3932E-11
  1.3932E-11
  1.3932E-11
  1.3932E-11
  1.3932E-11
  1.3932E-11
  1.3932E-11
  1.3932E-11
  1.3932E-11
  4.1873E-11
  4.1873E-11
  4.1873E-11
  4.1873E-11
  4.1873E-11
  4.1873E-11
  4.1873E-11
  4.1873E-11
  4.1873E-11
  1.6770E-10
  1.6770E-10
  1.6770E-10
  1.6770E-10
  1.6770E-10
  1.6770E-10
  1.6770E-10
  1.6770E-10
  1.6770E-10
  6.2959E-10
  6.2959E-10
  6.2959E-10
  6.2959E-10
  6.2959E-10
  6.2959E-10
  6.2959E-10
  6.2959E-10
  6.2959E-10
  2.3531E-09
  2.3531E-09
  2.3531E-09
  2.3531E-09
  2.3531E-09
  2.3531E-09
  2.3531E-09
  2.3531E-09
  2.3531E-09
  8.7917E-09
  8.7917E-09
  8.7917E-09
  8.7917E-09
  8.7917E-09
  8.7917E-09
  8.7917E-09
  8.7917E-09
  8.7917E-09
  3.2847E-08
  3.2847E-08
  3.2847E-08
  3.2847E-08
  3.2847E-08
  3.2847E-08
  3.2847E-08
  3.2847E-08
  3.2847E-08
  1.2272E-07
  1.2272E-07
  1.2272E-07
  1.2272E-07
  1.2272E-07
  1.2272E-07
  1.2272E-07
  1.2272E-07
  1.2272E-07
  4.5851E-07
  4.5851E-07
  4.5851E-07
  4.5851E-07
  4.5851E-07
  4.5851E-07
  4.5851E-07
  4.5851E-07
  4.5851E-07
  1.7131E-06
  1.7131E-06
  1.7131E-06
  1.7131E-06
  1.7131E-06
  1.7131E-06
  1.7131E-06
  1.7131E-06
  1.7131E-06
  6.4004E-06
  6.4004E-06
  6.4004E-06
  6.4004E-06
  6.4004E-06
  6.4004E-06
  6.4004E-06
  6.4004E-06
  6.4004E-06
  2.3913E-05
  2.3913E-05
  2.3913E-05
  2.3913E-05
  2.3913E-05
  2.3913E-05
  2.3913E-05
  2.3913E-05
  2.3913E-05
  8.9342E-05
  8.9342E-05
  8.9342E-05
  8.9342E-05
  8.9342E-05
  8.9342E-05
  8.9342E-05
  8.9342E-05
  8.9342E-05
  3.3380E-04
  3.3380E-04
  3.3380E-04
  3.3380E-04
  3.3380E-04
  3.3380E-04
  3.3380E-04
  3.3380E-04
  3.3380E-04
  1.2471E-03
  1.2471E-03
  1.2471E-03
  1.2471E-03
  1.2471E-03
  1.2471E-03
  1.2471E-03
  1.2471E-03
  1.2471E-03
  4.6594E-03
  4.6594E-03
  4.6594E-03
  4.6594E-03
  4.6594E-03
  4.6594E-03
  4.6594E-03
  4.6594E-03
  4.6594E-03
  1.7408E-02
  1.7408E-02
  1.7408E-02
  1.7408E-02
  1.7408E-02
  1.7408E-02
  1.7408E-02
  1.7408E-02
  1.7408E-02
  6.5040E-02
  6.5040E-02
  6.5040E-02
  6.5040E-02
  6.5040E-02
  6.5040E-02
  6.5040E-02
  6.5040E-02
  6.5040E-02
  2.4300E-01
  2.4300E-01
  2.4300E-01
  2.4300E-01
  2.4300E-01
  2.4300E-01
  2.4300E-01
  2.4300E-01
  2.4300E-01
  9.0788E-01
  9.0788E-01
  9.0788E-01
  9.0788E-01
  9.0788E-01
  9.0788E-01
  9.0788E-01
  9.0788E-01
  9.0788E-01
  1.4324E+00
  1.4324E+00
  1.4324E+00
  1.4324E+00
  1.4324E+00
  1.4324E+00
  1.4324E+00
  1.4324E+00
  1.4324E+00
   2.8600E-02
  1.4028E-11
  1.4028E-11
  1.4028E-11
  1.4028E-11
  1.4028E-11
  1.4028E-11
  1.4028E-11
  1.4028E-11
  1.4028E-11
  4.2161E-11
  4.2161E-11
  4.2161E-11
  4.2161E-11
  4.2161E-11
  4.2161E-11
  4.2161E-11
  4.2161E-11
  4.2161E-11
  1.6886E-10
  1.6886E-10
  1.6886E-10
  1.6886E-10
  1.6886E-10
  1.6886E-10
  1.6886E-10
  1.6886E-10
  1.6886E-10
  6.3393E-10
  6.3393E-10
  6.3393E-10
  6.3393E-10
  6.3393E-10
  6.3393E-10
  6.3393E-10
  6.3393E-10
  6.3393E-10
  2.3693E-09
  2.3693E-09
  2.3693E-09
  2.3693E-09
  2.3693E-09
  2.3693E-09
  2.3693E-09
  2.3693E-09
  2.3693E-09
  8.8524E-09
  8.8524E-09
  8.8524E-09
  8.8524E-09
  8.8524E-09
  8.8524E-09
  8.8524E-09
  8.8524E-09
  8.8524E-09
  3.3075E-08
  3.3075E-08
  3.3075E-08
  3.3075E-08
  3.3075E-08
  3.3075E-08
  3.3075E-08
  3.3075E-08
  3.3075E-08
  1.2357E-07
  1.2357E-07
  1.2357E-07
  1.2357E-07
  1.2357E-07
  1.2357E-07
  1.2357E-07
  1.2357E-07
  1.2357E-07
  4.6170E-07
  4.6170E-07
  4.6170E-07
  4.6170E-07
  4.6170E-07
  4.6170E-07
  4.6170E-07
  4.6170E-07
  4.6170E-07
  1.7250E-06
  1.7250E-06
  1.7250E-06
  1.7250E-06
  1.7250E-06
  1.7250E-06
  1.7250E-06
  1.7250E-06
  1.7250E-06
  6.4449E-06
  6.4449E-06
  6.4449E-06
  6.4449E-06
  6.4449E-06
  6.4449E-06
  6.4449E-06
  6.4449E-06
  6.4449E-06
  2.4079E-05
  2.4079E-05
  2.4079E-05
  2.4079E-05
  2.4079E-05
  2.4079E-05
  2.4079E-05
  2.4079E-05
  2.4079E-05
  8.9965E-05
  8.9965E-05
  8.9965E-05
  8.9965E-05
  8.9965E-05
  8.9965E-05
  8.9965E-05
  8.9965E-05
  8.9965E-05
  3.3613E-04
  3.3613E-04
  3.3613E-04
  3.3613E-04
  3.3613E-04
  3.3613E-04
  3.3613E-04
  3.3613E-04
  3.3613E-04
  1.2558E-03
  1.2558E-03
  1.2558E-03
  1.2558E-03
  1.2558E-03
  1.2558E-03
  1.2558E-03
  1.2558E-03
  1.2558E-03
  4.6920E-03
  4.6920E-03
  4.6920E-03
  4.6920E-03
  4.6920E-03
  4.6920E-03
  4.6920E-03
  4.6920E-03
  4.6920E-03
  1.7530E-02
  1.7530E-02
  1.7530E-02
  1.7530E-02
  1.7530E-02
  1.7530E-02
  1.7530E-02
  1.7530E-02
  1.7530E-02
  6.5496E-02
  6.5496E-02
  6.5496E-02
  6.5496E-02
  6.5496E-02
  6.5496E-02
  6.5496E-02
  6.5496E-02
  6.5496E-02
  2.4470E-01
  2.4470E-01
  2.4470E-01
  2.4470E-01
  2.4470E-01
  2.4470E-01
  2.4470E-01
  2.4470E-01
  2.4470E-01
  9.1426E-01
  9.1426E-01
  9.1426E-01
  9.1426E-01
  9.1426E-01
  9.1426E-01
  9.1426E-01
  9.1426E-01
  9.1426E-01
  1.4424E+00
  1.4424E+00
  1.4424E+00
  1.4424E+00
  1.4424E+00
  1.4424E+00
  1.4424E+00
  1.4424E+00
  1.4424E+00
   2.8700E-02
  1.4124E-11
  1.4124E-11
  1.4124E-11
  1.4124E-11
  1.4124E-11
  1.4124E-11
  1.4124E-11
  1.4124E-11
  1.4124E-11
  4.2450E-11
  4.2450E-11
  4.2450E-11
  4.2450E-11
  4.2450E-11
  4.2450E-11
  4.2450E-11
  4.2450E-11
  4.2450E-11
  1.7002E-10
  1.7002E-10
  1.7002E-10
  1.7002E-10
  1.7002E-10
  1.7002E-10
  1.7002E-10
  1.7002E-10
  1.7002E-10
  6.3829E-10
  6.3829E-10
  6.3829E-10
  6.3829E-10
  6.3829E-10
  6.3829E-10
  6.3829E-10
  6.3829E-10
  6.3829E-10
  2.3856E-09
  2.3856E-09
  2.3856E-09
  2.3856E-09
  2.3856E-09
  2.3856E-09
  2.3856E-09
  2.3856E-09
  2.3856E-09
  8.9134E-09
  8.9134E-09
  8.9134E-09
  8.9134E-09
  8.9134E-09
  8.9134E-09
  8.9134E-09
  8.9134E-09
  8.9134E-09
  3.3303E-08
  3.3303E-08
  3.3303E-08
  3.3303E-08
  3.3303E-08
  3.3303E-08
  3.3303E-08
  3.3303E-08
  3.3303E-08
  1.2443E-07
  1.2443E-07
  1.2443E-07
  1.2443E-07
  1.2443E-07
  1.2443E-07
  1.2443E-07
  1.2443E-07
  1.2443E-07
  4.6489E-07
  4.6489E-07
  4.6489E-07
  4.6489E-07
  4.6489E-07
  4.6489E-07
  4.6489E-07
  4.6489E-07
  4.6489E-07
  1.7369E-06
  1.7369E-06
  1.7369E-06
  1.7369E-06
  1.7369E-06
  1.7369E-06
  1.7369E-06
  1.7369E-06
  1.7369E-06
  6.4895E-06
  6.4895E-06
  6.4895E-06
  6.4895E-06
  6.4895E-06
  6.4895E-06
  6.4895E-06
  6.4895E-06
  6.4895E-06
  2.4246E-05
  2.4246E-05
  2.4246E-05
  2.4246E-05
  2.4246E-05
  2.4246E-05
  2.4246E-05
  2.4246E-05
  2.4246E-05
  9.0590E-05
  9.0590E-05
  9.0590E-05
  9.0590E-05
  9.0590E-05
  9.0590E-05
  9.0590E-05
  9.0590E-05
  9.0590E-05
  3.3846E-04
  3.3846E-04
  3.3846E-04
  3.3846E-04
  3.3846E-04
  3.3846E-04
  3.3846E-04
  3.3846E-04
  3.3846E-04
  1.2646E-03
  1.2646E-03
  1.2646E-03
  1.2646E-03
  1.2646E-03
  1.2646E-03
  1.2646E-03
  1.2646E-03
  1.2646E-03
  4.7247E-03
  4.7247E-03
  4.7247E-03
  4.7247E-03
  4.7247E-03
  4.7247E-03
  4.7247E-03
  4.7247E-03
  4.7247E-03
  1.7652E-02
  1.7652E-02
  1.7652E-02
  1.7652E-02
  1.7652E-02
  1.7652E-02
  1.7652E-02
  1.7652E-02
  1.7652E-02
  6.5953E-02
  6.5953E-02
  6.5953E-02
  6.5953E-02
  6.5953E-02
  6.5953E-02
  6.5953E-02
  6.5953E-02
  6.5953E-02
  2.4642E-01
  2.4642E-01
  2.4642E-01
  2.4642E-01
  2.4642E-01
  2.4642E-01
  2.4642E-01
  2.4642E-01
  2.4642E-01
  9.2066E-01
  9.2066E-01
  9.2066E-01
  9.2066E-01
  9.2066E-01
  9.2066E-01
  9.2066E-01
  9.2066E-01
  9.2066E-01
  1.4525E+00
  1.4525E+00
  1.4525E+00
  1.4525E+00
  1.4525E+00
  1.4525E+00
  1.4525E+00
  1.4525E+00
  1.4525E+00
   2.8800E-02
  1.4220E-11
  1.4220E-11
  1.4220E-11
  1.4220E-11
  1.4220E-11
  1.4220E-11
  1.4220E-11
  1.4220E-11
  1.4220E-11
  4.2740E-11
  4.2740E-11
  4.2740E-11
  4.2740E-11
  4.2740E-11
  4.2740E-11
  4.2740E-11
  4.2740E-11
  4.2740E-11
  1.7118E-10
  1.7118E-10
  1.7118E-10
  1.7118E-10
  1.7118E-10
  1.7118E-10
  1.7118E-10
  1.7118E-10
  1.7118E-10
  6.4266E-10
  6.4266E-10
  6.4266E-10
  6.4266E-10
  6.4266E-10
  6.4266E-10
  6.4266E-10
  6.4266E-10
  6.4266E-10
  2.4020E-09
  2.4020E-09
  2.4020E-09
  2.4020E-09
  2.4020E-09
  2.4020E-09
  2.4020E-09
  2.4020E-09
  2.4020E-09
  8.9746E-09
  8.9746E-09
  8.9746E-09
  8.9746E-09
  8.9746E-09
  8.9746E-09
  8.9746E-09
  8.9746E-09
  8.9746E-09
  3.3532E-08
  3.3532E-08
  3.3532E-08
  3.3532E-08
  3.3532E-08
  3.3532E-08
  3.3532E-08
  3.3532E-08
  3.3532E-08
  1.2528E-07
  1.2528E-07
  1.2528E-07
  1.2528E-07
  1.2528E-07
  1.2528E-07
  1.2528E-07
  1.2528E-07
  1.2528E-07
  4.6809E-07
  4.6809E-07
  4.6809E-07
  4.6809E-07
  4.6809E-07
  4.6809E-07
  4.6809E-07
  4.6809E-07
  4.6809E-07
  1.7489E-06
  1.7489E-06
  1.7489E-06
  1.7489E-06
  1.7489E-06
  1.7489E-06
  1.7489E-06
  1.7489E-06
  1.7489E-06
  6.5343E-06
  6.5343E-06
  6.5343E-06
  6.5343E-06
  6.5343E-06
  6.5343E-06
  6.5343E-06
  6.5343E-06
  6.5343E-06
  2.4414E-05
  2.4414E-05
  2.4414E-05
  2.4414E-05
  2.4414E-05
  2.4414E-05
  2.4414E-05
  2.4414E-05
  2.4414E-05
  9.1217E-05
  9.1217E-05
  9.1217E-05
  9.1217E-05
  9.1217E-05
  9.1217E-05
  9.1217E-05
  9.1217E-05
  9.1217E-05
  3.4081E-04
  3.4081E-04
  3.4081E-04
  3.4081E-04
  3.4081E-04
  3.4081E-04
  3.4081E-04
  3.4081E-04
  3.4081E-04
  1.2733E-03
  1.2733E-03
  1.2733E-03
  1.2733E-03
  1.2733E-03
  1.2733E-03
  1.2733E-03
  1.2733E-03
  1.2733E-03
  4.7575E-03
  4.7575E-03
  4.7575E-03
  4.7575E-03
  4.7575E-03
  4.7575E-03
  4.7575E-03
  4.7575E-03
  4.7575E-03
  1.7775E-02
  1.7775E-02
  1.7775E-02
  1.7775E-02
  1.7775E-02
  1.7775E-02
  1.7775E-02
  1.7775E-02
  1.7775E-02
  6.6412E-02
  6.6412E-02
  6.6412E-02
  6.6412E-02
  6.6412E-02
  6.6412E-02
  6.6412E-02
  6.6412E-02
  6.6412E-02
  2.4813E-01
  2.4813E-01
  2.4813E-01
  2.4813E-01
  2.4813E-01
  2.4813E-01
  2.4813E-01
  2.4813E-01
  2.4813E-01
  9.2708E-01
  9.2708E-01
  9.2708E-01
  9.2708E-01
  9.2708E-01
  9.2708E-01
  9.2708E-01
  9.2708E-01
  9.2708E-01
  1.4627E+00
  1.4627E+00
  1.4627E+00
  1.4627E+00
  1.4627E+00
  1.4627E+00
  1.4627E+00
  1.4627E+00
  1.4627E+00
   2.8900E-02
  1.4316E-11
  1.4316E-11
  1.4316E-11
  1.4316E-11
  1.4316E-11
  1.4316E-11
  1.4316E-11
  1.4316E-11
  1.4316E-11
  4.3031E-11
  4.3031E-11
  4.3031E-11
  4.3031E-11
  4.3031E-11
  4.3031E-11
  4.3031E-11
  4.3031E-11
  4.3031E-11
  1.7235E-10
  1.7235E-10
  1.7235E-10
  1.7235E-10
  1.7235E-10
  1.7235E-10
  1.7235E-10
  1.7235E-10
  1.7235E-10
  6.4704E-10
  6.4704E-10
  6.4704E-10
  6.4704E-10
  6.4704E-10
  6.4704E-10
  6.4704E-10
  6.4704E-10
  6.4704E-10
  2.4184E-09
  2.4184E-09
  2.4184E-09
  2.4184E-09
  2.4184E-09
  2.4184E-09
  2.4184E-09
  2.4184E-09
  2.4184E-09
  9.0360E-09
  9.0360E-09
  9.0360E-09
  9.0360E-09
  9.0360E-09
  9.0360E-09
  9.0360E-09
  9.0360E-09
  9.0360E-09
  3.3761E-08
  3.3761E-08
  3.3761E-08
  3.3761E-08
  3.3761E-08
  3.3761E-08
  3.3761E-08
  3.3761E-08
  3.3761E-08
  1.2614E-07
  1.2614E-07
  1.2614E-07
  1.2614E-07
  1.2614E-07
  1.2614E-07
  1.2614E-07
  1.2614E-07
  1.2614E-07
  4.7130E-07
  4.7130E-07
  4.7130E-07
  4.7130E-07
  4.7130E-07
  4.7130E-07
  4.7130E-07
  4.7130E-07
  4.7130E-07
  1.7609E-06
  1.7609E-06
  1.7609E-06
  1.7609E-06
  1.7609E-06
  1.7609E-06
  1.7609E-06
  1.7609E-06
  1.7609E-06
  6.5793E-06
  6.5793E-06
  6.5793E-06
  6.5793E-06
  6.5793E-06
  6.5793E-06
  6.5793E-06
  6.5793E-06
  6.5793E-06
  2.4582E-05
  2.4582E-05
  2.4582E-05
  2.4582E-05
  2.4582E-05
  2.4582E-05
  2.4582E-05
  2.4582E-05
  2.4582E-05
  9.1845E-05
  9.1845E-05
  9.1845E-05
  9.1845E-05
  9.1845E-05
  9.1845E-05
  9.1845E-05
  9.1845E-05
  9.1845E-05
  3.4316E-04
  3.4316E-04
  3.4316E-04
  3.4316E-04
  3.4316E-04
  3.4316E-04
  3.4316E-04
  3.4316E-04
  3.4316E-04
  1.2821E-03
  1.2821E-03
  1.2821E-03
  1.2821E-03
  1.2821E-03
  1.2821E-03
  1.2821E-03
  1.2821E-03
  1.2821E-03
  4.7904E-03
  4.7904E-03
  4.7904E-03
  4.7904E-03
  4.7904E-03
  4.7904E-03
  4.7904E-03
  4.7904E-03
  4.7904E-03
  1.7898E-02
  1.7898E-02
  1.7898E-02
  1.7898E-02
  1.7898E-02
  1.7898E-02
  1.7898E-02
  1.7898E-02
  1.7898E-02
  6.6873E-02
  6.6873E-02
  6.6873E-02
  6.6873E-02
  6.6873E-02
  6.6873E-02
  6.6873E-02
  6.6873E-02
  6.6873E-02
  2.4985E-01
  2.4985E-01
  2.4985E-01
  2.4985E-01
  2.4985E-01
  2.4985E-01
  2.4985E-01
  2.4985E-01
  2.4985E-01
  9.3352E-01
  9.3352E-01
  9.3352E-01
  9.3352E-01
  9.3352E-01
  9.3352E-01
  9.3352E-01
  9.3352E-01
  9.3352E-01
  1.4728E+00
  1.4728E+00
  1.4728E+00
  1.4728E+00
  1.4728E+00
  1.4728E+00
  1.4728E+00
  1.4728E+00
  1.4728E+00
   2.9000E-02
  1.4413E-11
  1.4413E-11
  1.4413E-11
  1.4413E-11
  1.4413E-11
  1.4413E-11
  1.4413E-11
  1.4413E-11
  1.4413E-11
  4.3323E-11
  4.3323E-11
  4.3323E-11
  4.3323E-11
  4.3323E-11
  4.3323E-11
  4.3323E-11
  4.3323E-11
  4.3323E-11
  1.7352E-10
  1.7352E-10
  1.7352E-10
  1.7352E-10
  1.7352E-10
  1.7352E-10
  1.7352E-10
  1.7352E-10
  1.7352E-10
  6.5144E-10
  6.5144E-10
  6.5144E-10
  6.5144E-10
  6.5144E-10
  6.5144E-10
  6.5144E-10
  6.5144E-10
  6.5144E-10
  2.4348E-09
  2.4348E-09
  2.4348E-09
  2.4348E-09
  2.4348E-09
  2.4348E-09
  2.4348E-09
  2.4348E-09
  2.4348E-09
  9.0976E-09
  9.0976E-09
  9.0976E-09
  9.0976E-09
  9.0976E-09
  9.0976E-09
  9.0976E-09
  9.0976E-09
  9.0976E-09
  3.3991E-08
  3.3991E-08
  3.3991E-08
  3.3991E-08
  3.3991E-08
  3.3991E-08
  3.3991E-08
  3.3991E-08
  3.3991E-08
  1.2700E-07
  1.2700E-07
  1.2700E-07
  1.2700E-07
  1.2700E-07
  1.2700E-07
  1.2700E-07
  1.2700E-07
  1.2700E-07
  4.7452E-07
  4.7452E-07
  4.7452E-07
  4.7452E-07
  4.7452E-07
  4.7452E-07
  4.7452E-07
  4.7452E-07
  4.7452E-07
  1.7730E-06
  1.7730E-06
  1.7730E-06
  1.7730E-06
  1.7730E-06
  1.7730E-06
  1.7730E-06
  1.7730E-06
  1.7730E-06
  6.6244E-06
  6.6244E-06
  6.6244E-06
  6.6244E-06
  6.6244E-06
  6.6244E-06
  6.6244E-06
  6.6244E-06
  6.6244E-06
  2.4751E-05
  2.4751E-05
  2.4751E-05
  2.4751E-05
  2.4751E-05
  2.4751E-05
  2.4751E-05
  2.4751E-05
  2.4751E-05
  9.2477E-05
  9.2477E-05
  9.2477E-05
  9.2477E-05
  9.2477E-05
  9.2477E-05
  9.2477E-05
  9.2477E-05
  9.2477E-05
  3.4552E-04
  3.4552E-04
  3.4552E-04
  3.4552E-04
  3.4552E-04
  3.4552E-04
  3.4552E-04
  3.4552E-04
  3.4552E-04
  1.2910E-03
  1.2910E-03
  1.2910E-03
  1.2910E-03
  1.2910E-03
  1.2910E-03
  1.2910E-03
  1.2910E-03
  1.2910E-03
  4.8234E-03
  4.8234E-03
  4.8234E-03
  4.8234E-03
  4.8234E-03
  4.8234E-03
  4.8234E-03
  4.8234E-03
  4.8234E-03
  1.8022E-02
  1.8022E-02
  1.8022E-02
  1.8022E-02
  1.8022E-02
  1.8022E-02
  1.8022E-02
  1.8022E-02
  1.8022E-02
  6.7335E-02
  6.7335E-02
  6.7335E-02
  6.7335E-02
  6.7335E-02
  6.7335E-02
  6.7335E-02
  6.7335E-02
  6.7335E-02
  2.5158E-01
  2.5158E-01
  2.5158E-01
  2.5158E-01
  2.5158E-01
  2.5158E-01
  2.5158E-01
  2.5158E-01
  2.5158E-01
  9.3999E-01
  9.3999E-01
  9.3999E-01
  9.3999E-01
  9.3999E-01
  9.3999E-01
  9.3999E-01
  9.3999E-01
  9.3999E-01
  1.4830E+00
  1.4830E+00
  1.4830E+00
  1.4830E+00
  1.4830E+00
  1.4830E+00
  1.4830E+00
  1.4830E+00
  1.4830E+00
   2.9100E-02
  1.4511E-11
  1.4511E-11
  1.4511E-11
  1.4511E-11
  1.4511E-11
  1.4511E-11
  1.4511E-11
  1.4511E-11
  1.4511E-11
  4.3616E-11
  4.3616E-11
  4.3616E-11
  4.3616E-11
  4.3616E-11
  4.3616E-11
  4.3616E-11
  4.3616E-11
  4.3616E-11
  1.7469E-10
  1.7469E-10
  1.7469E-10
  1.7469E-10
  1.7469E-10
  1.7469E-10
  1.7469E-10
  1.7469E-10
  1.7469E-10
  6.5585E-10
  6.5585E-10
  6.5585E-10
  6.5585E-10
  6.5585E-10
  6.5585E-10
  6.5585E-10
  6.5585E-10
  6.5585E-10
  2.4513E-09
  2.4513E-09
  2.4513E-09
  2.4513E-09
  2.4513E-09
  2.4513E-09
  2.4513E-09
  2.4513E-09
  2.4513E-09
  9.1593E-09
  9.1593E-09
  9.1593E-09
  9.1593E-09
  9.1593E-09
  9.1593E-09
  9.1593E-09
  9.1593E-09
  9.1593E-09
  3.4223E-08
  3.4223E-08
  3.4223E-08
  3.4223E-08
  3.4223E-08
  3.4223E-08
  3.4223E-08
  3.4223E-08
  3.4223E-08
  1.2787E-07
  1.2787E-07
  1.2787E-07
  1.2787E-07
  1.2787E-07
  1.2787E-07
  1.2787E-07
  1.2787E-07
  1.2787E-07
  4.7776E-07
  4.7776E-07
  4.7776E-07
  4.7776E-07
  4.7776E-07
  4.7776E-07
  4.7776E-07
  4.7776E-07
  4.7776E-07
  1.7851E-06
  1.7851E-06
  1.7851E-06
  1.7851E-06
  1.7851E-06
  1.7851E-06
  1.7851E-06
  1.7851E-06
  1.7851E-06
  6.6696E-06
  6.6696E-06
  6.6696E-06
  6.6696E-06
  6.6696E-06
  6.6696E-06
  6.6696E-06
  6.6696E-06
  6.6696E-06
  2.4920E-05
  2.4920E-05
  2.4920E-05
  2.4920E-05
  2.4920E-05
  2.4920E-05
  2.4920E-05
  2.4920E-05
  2.4920E-05
  9.3110E-05
  9.3110E-05
  9.3110E-05
  9.3110E-05
  9.3110E-05
  9.3110E-05
  9.3110E-05
  9.3110E-05
  9.3110E-05
  3.4789E-04
  3.4789E-04
  3.4789E-04
  3.4789E-04
  3.4789E-04
  3.4789E-04
  3.4789E-04
  3.4789E-04
  3.4789E-04
  1.2998E-03
  1.2998E-03
  1.2998E-03
  1.2998E-03
  1.2998E-03
  1.2998E-03
  1.2998E-03
  1.2998E-03
  1.2998E-03
  4.8566E-03
  4.8566E-03
  4.8566E-03
  4.8566E-03
  4.8566E-03
  4.8566E-03
  4.8566E-03
  4.8566E-03
  4.8566E-03
  1.8146E-02
  1.8146E-02
  1.8146E-02
  1.8146E-02
  1.8146E-02
  1.8146E-02
  1.8146E-02
  1.8146E-02
  1.8146E-02
  6.7799E-02
  6.7799E-02
  6.7799E-02
  6.7799E-02
  6.7799E-02
  6.7799E-02
  6.7799E-02
  6.7799E-02
  6.7799E-02
  2.5332E-01
  2.5332E-01
  2.5332E-01
  2.5332E-01
  2.5332E-01
  2.5332E-01
  2.5332E-01
  2.5332E-01
  2.5332E-01
  9.4647E-01
  9.4647E-01
  9.4647E-01
  9.4647E-01
  9.4647E-01
  9.4647E-01
  9.4647E-01
  9.4647E-01
  9.4647E-01
  1.4933E+00
  1.4933E+00
  1.4933E+00
  1.4933E+00
  1.4933E+00
  1.4933E+00
  1.4933E+00
  1.4933E+00
  1.4933E+00
   2.9200E-02
  1.4608E-11
  1.4608E-11
  1.4608E-11
  1.4608E-11
  1.4608E-11
  1.4608E-11
  1.4608E-11
  1.4608E-11
  1.4608E-11
  4.3909E-11
  4.3909E-11
  4.3909E-11
  4.3909E-11
  4.3909E-11
  4.3909E-11
  4.3909E-11
  4.3909E-11
  4.3909E-11
  1.7587E-10
  1.7587E-10
  1.7587E-10
  1.7587E-10
  1.7587E-10
  1.7587E-10
  1.7587E-10
  1.7587E-10
  1.7587E-10
  6.6028E-10
  6.6028E-10
  6.6028E-10
  6.6028E-10
  6.6028E-10
  6.6028E-10
  6.6028E-10
  6.6028E-10
  6.6028E-10
  2.4679E-09
  2.4679E-09
  2.4679E-09
  2.4679E-09
  2.4679E-09
  2.4679E-09
  2.4679E-09
  2.4679E-09
  2.4679E-09
  9.2213E-09
  9.2213E-09
  9.2213E-09
  9.2213E-09
  9.2213E-09
  9.2213E-09
  9.2213E-09
  9.2213E-09
  9.2213E-09
  3.4454E-08
  3.4454E-08
  3.4454E-08
  3.4454E-08
  3.4454E-08
  3.4454E-08
  3.4454E-08
  3.4454E-08
  3.4454E-08
  1.2873E-07
  1.2873E-07
  1.2873E-07
  1.2873E-07
  1.2873E-07
  1.2873E-07
  1.2873E-07
  1.2873E-07
  1.2873E-07
  4.8100E-07
  4.8100E-07
  4.8100E-07
  4.8100E-07
  4.8100E-07
  4.8100E-07
  4.8100E-07
  4.8100E-07
  4.8100E-07
  1.7972E-06
  1.7972E-06
  1.7972E-06
  1.7972E-06
  1.7972E-06
  1.7972E-06
  1.7972E-06
  1.7972E-06
  1.7972E-06
  6.7150E-06
  6.7150E-06
  6.7150E-06
  6.7150E-06
  6.7150E-06
  6.7150E-06
  6.7150E-06
  6.7150E-06
  6.7150E-06
  2.5090E-05
  2.5090E-05
  2.5090E-05
  2.5090E-05
  2.5090E-05
  2.5090E-05
  2.5090E-05
  2.5090E-05
  2.5090E-05
  9.3745E-05
  9.3745E-05
  9.3745E-05
  9.3745E-05
  9.3745E-05
  9.3745E-05
  9.3745E-05
  9.3745E-05
  9.3745E-05
  3.5026E-04
  3.5026E-04
  3.5026E-04
  3.5026E-04
  3.5026E-04
  3.5026E-04
  3.5026E-04
  3.5026E-04
  3.5026E-04
  1.3087E-03
  1.3087E-03
  1.3087E-03
  1.3087E-03
  1.3087E-03
  1.3087E-03
  1.3087E-03
  1.3087E-03
  1.3087E-03
  4.8898E-03
  4.8898E-03
  4.8898E-03
  4.8898E-03
  4.8898E-03
  4.8898E-03
  4.8898E-03
  4.8898E-03
  4.8898E-03
  1.8270E-02
  1.8270E-02
  1.8270E-02
  1.8270E-02
  1.8270E-02
  1.8270E-02
  1.8270E-02
  1.8270E-02
  1.8270E-02
  6.8264E-02
  6.8264E-02
  6.8264E-02
  6.8264E-02
  6.8264E-02
  6.8264E-02
  6.8264E-02
  6.8264E-02
  6.8264E-02
  2.5506E-01
  2.5506E-01
  2.5506E-01
  2.5506E-01
  2.5506E-01
  2.5506E-01
  2.5506E-01
  2.5506E-01
  2.5506E-01
  9.5298E-01
  9.5298E-01
  9.5298E-01
  9.5298E-01
  9.5298E-01
  9.5298E-01
  9.5298E-01
  9.5298E-01
  9.5298E-01
  1.5036E+00
  1.5036E+00
  1.5036E+00
  1.5036E+00
  1.5036E+00
  1.5036E+00
  1.5036E+00
  1.5036E+00
  1.5036E+00
   2.9300E-02
  1.4706E-11
  1.4706E-11
  1.4706E-11
  1.4706E-11
  1.4706E-11
  1.4706E-11
  1.4706E-11
  1.4706E-11
  1.4706E-11
  4.4204E-11
  4.4204E-11
  4.4204E-11
  4.4204E-11
  4.4204E-11
  4.4204E-11
  4.4204E-11
  4.4204E-11
  4.4204E-11
  1.7705E-10
  1.7705E-10
  1.7705E-10
  1.7705E-10
  1.7705E-10
  1.7705E-10
  1.7705E-10
  1.7705E-10
  1.7705E-10
  6.6472E-10
  6.6472E-10
  6.6472E-10
  6.6472E-10
  6.6472E-10
  6.6472E-10
  6.6472E-10
  6.6472E-10
  6.6472E-10
  2.4845E-09
  2.4845E-09
  2.4845E-09
  2.4845E-09
  2.4845E-09
  2.4845E-09
  2.4845E-09
  2.4845E-09
  2.4845E-09
  9.2835E-09
  9.2835E-09
  9.2835E-09
  9.2835E-09
  9.2835E-09
  9.2835E-09
  9.2835E-09
  9.2835E-09
  9.2835E-09
  3.4687E-08
  3.4687E-08
  3.4687E-08
  3.4687E-08
  3.4687E-08
  3.4687E-08
  3.4687E-08
  3.4687E-08
  3.4687E-08
  1.2960E-07
  1.2960E-07
  1.2960E-07
  1.2960E-07
  1.2960E-07
  1.2960E-07
  1.2960E-07
  1.2960E-07
  1.2960E-07
  4.8426E-07
  4.8426E-07
  4.8426E-07
  4.8426E-07
  4.8426E-07
  4.8426E-07
  4.8426E-07
  4.8426E-07
  4.8426E-07
  1.8094E-06
  1.8094E-06
  1.8094E-06
  1.8094E-06
  1.8094E-06
  1.8094E-06
  1.8094E-06
  1.8094E-06
  1.8094E-06
  6.7606E-06
  6.7606E-06
  6.7606E-06
  6.7606E-06
  6.7606E-06
  6.7606E-06
  6.7606E-06
  6.7606E-06
  6.7606E-06
  2.5260E-05
  2.5260E-05
  2.5260E-05
  2.5260E-05
  2.5260E-05
  2.5260E-05
  2.5260E-05
  2.5260E-05
  2.5260E-05
  9.4382E-05
  9.4382E-05
  9.4382E-05
  9.4382E-05
  9.4382E-05
  9.4382E-05
  9.4382E-05
  9.4382E-05
  9.4382E-05
  3.5265E-04
  3.5265E-04
  3.5265E-04
  3.5265E-04
  3.5265E-04
  3.5265E-04
  3.5265E-04
  3.5265E-04
  3.5265E-04
  1.3176E-03
  1.3176E-03
  1.3176E-03
  1.3176E-03
  1.3176E-03
  1.3176E-03
  1.3176E-03
  1.3176E-03
  1.3176E-03
  4.9232E-03
  4.9232E-03
  4.9232E-03
  4.9232E-03
  4.9232E-03
  4.9232E-03
  4.9232E-03
  4.9232E-03
  4.9232E-03
  1.8395E-02
  1.8395E-02
  1.8395E-02
  1.8395E-02
  1.8395E-02
  1.8395E-02
  1.8395E-02
  1.8395E-02
  1.8395E-02
  6.8731E-02
  6.8731E-02
  6.8731E-02
  6.8731E-02
  6.8731E-02
  6.8731E-02
  6.8731E-02
  6.8731E-02
  6.8731E-02
  2.5680E-01
  2.5680E-01
  2.5680E-01
  2.5680E-01
  2.5680E-01
  2.5680E-01
  2.5680E-01
  2.5680E-01
  2.5680E-01
  9.5952E-01
  9.5952E-01
  9.5952E-01
  9.5952E-01
  9.5952E-01
  9.5952E-01
  9.5952E-01
  9.5952E-01
  9.5952E-01
  1.5139E+00
  1.5139E+00
  1.5139E+00
  1.5139E+00
  1.5139E+00
  1.5139E+00
  1.5139E+00
  1.5139E+00
  1.5139E+00
   2.9400E-02
  1.4804E-11
  1.4804E-11
  1.4804E-11
  1.4804E-11
  1.4804E-11
  1.4804E-11
  1.4804E-11
  1.4804E-11
  1.4804E-11
  4.4499E-11
  4.4499E-11
  4.4499E-11
  4.4499E-11
  4.4499E-11
  4.4499E-11
  4.4499E-11
  4.4499E-11
  4.4499E-11
  1.7824E-10
  1.7824E-10
  1.7824E-10
  1.7824E-10
  1.7824E-10
  1.7824E-10
  1.7824E-10
  1.7824E-10
  1.7824E-10
  6.6918E-10
  6.6918E-10
  6.6918E-10
  6.6918E-10
  6.6918E-10
  6.6918E-10
  6.6918E-10
  6.6918E-10
  6.6918E-10
  2.5012E-09
  2.5012E-09
  2.5012E-09
  2.5012E-09
  2.5012E-09
  2.5012E-09
  2.5012E-09
  2.5012E-09
  2.5012E-09
  9.3458E-09
  9.3458E-09
  9.3458E-09
  9.3458E-09
  9.3458E-09
  9.3458E-09
  9.3458E-09
  9.3458E-09
  9.3458E-09
  3.4920E-08
  3.4920E-08
  3.4920E-08
  3.4920E-08
  3.4920E-08
  3.4920E-08
  3.4920E-08
  3.4920E-08
  3.4920E-08
  1.3048E-07
  1.3048E-07
  1.3048E-07
  1.3048E-07
  1.3048E-07
  1.3048E-07
  1.3048E-07
  1.3048E-07
  1.3048E-07
  4.8752E-07
  4.8752E-07
  4.8752E-07
  4.8752E-07
  4.8752E-07
  4.8752E-07
  4.8752E-07
  4.8752E-07
  4.8752E-07
  1.8216E-06
  1.8216E-06
  1.8216E-06
  1.8216E-06
  1.8216E-06
  1.8216E-06
  1.8216E-06
  1.8216E-06
  1.8216E-06
  6.8063E-06
  6.8063E-06
  6.8063E-06
  6.8063E-06
  6.8063E-06
  6.8063E-06
  6.8063E-06
  6.8063E-06
  6.8063E-06
  2.5431E-05
  2.5431E-05
  2.5431E-05
  2.5431E-05
  2.5431E-05
  2.5431E-05
  2.5431E-05
  2.5431E-05
  2.5431E-05
  9.5022E-05
  9.5022E-05
  9.5022E-05
  9.5022E-05
  9.5022E-05
  9.5022E-05
  9.5022E-05
  9.5022E-05
  9.5022E-05
  3.5504E-04
  3.5504E-04
  3.5504E-04
  3.5504E-04
  3.5504E-04
  3.5504E-04
  3.5504E-04
  3.5504E-04
  3.5504E-04
  1.3266E-03
  1.3266E-03
  1.3266E-03
  1.3266E-03
  1.3266E-03
  1.3266E-03
  1.3266E-03
  1.3266E-03
  1.3266E-03
  4.9567E-03
  4.9567E-03
  4.9567E-03
  4.9567E-03
  4.9567E-03
  4.9567E-03
  4.9567E-03
  4.9567E-03
  4.9567E-03
  1.8520E-02
  1.8520E-02
  1.8520E-02
  1.8520E-02
  1.8520E-02
  1.8520E-02
  1.8520E-02
  1.8520E-02
  1.8520E-02
  6.9199E-02
  6.9199E-02
  6.9199E-02
  6.9199E-02
  6.9199E-02
  6.9199E-02
  6.9199E-02
  6.9199E-02
  6.9199E-02
  2.5856E-01
  2.5856E-01
  2.5856E-01
  2.5856E-01
  2.5856E-01
  2.5856E-01
  2.5856E-01
  2.5856E-01
  2.5856E-01
  9.6607E-01
  9.6607E-01
  9.6607E-01
  9.6607E-01
  9.6607E-01
  9.6607E-01
  9.6607E-01
  9.6607E-01
  9.6607E-01
  1.5242E+00
  1.5242E+00
  1.5242E+00
  1.5242E+00
  1.5242E+00
  1.5242E+00
  1.5242E+00
  1.5242E+00
  1.5242E+00
   2.9500E-02
  1.4902E-11
  1.4902E-11
  1.4902E-11
  1.4902E-11
  1.4902E-11
  1.4902E-11
  1.4902E-11
  1.4902E-11
  1.4902E-11
  4.4796E-11
  4.4796E-11
  4.4796E-11
  4.4796E-11
  4.4796E-11
  4.4796E-11
  4.4796E-11
  4.4796E-11
  4.4796E-11
  1.7943E-10
  1.7943E-10
  1.7943E-10
  1.7943E-10
  1.7943E-10
  1.7943E-10
  1.7943E-10
  1.7943E-10
  1.7943E-10
  6.7365E-10
  6.7365E-10
  6.7365E-10
  6.7365E-10
  6.7365E-10
  6.7365E-10
  6.7365E-10
  6.7365E-10
  6.7365E-10
  2.5179E-09
  2.5179E-09
  2.5179E-09
  2.5179E-09
  2.5179E-09
  2.5179E-09
  2.5179E-09
  2.5179E-09
  2.5179E-09
  9.4084E-09
  9.4084E-09
  9.4084E-09
  9.4084E-09
  9.4084E-09
  9.4084E-09
  9.4084E-09
  9.4084E-09
  9.4084E-09
  3.5154E-08
  3.5154E-08
  3.5154E-08
  3.5154E-08
  3.5154E-08
  3.5154E-08
  3.5154E-08
  3.5154E-08
  3.5154E-08
  1.3135E-07
  1.3135E-07
  1.3135E-07
  1.3135E-07
  1.3135E-07
  1.3135E-07
  1.3135E-07
  1.3135E-07
  1.3135E-07
  4.9080E-07
  4.9080E-07
  4.9080E-07
  4.9080E-07
  4.9080E-07
  4.9080E-07
  4.9080E-07
  4.9080E-07
  4.9080E-07
  1.8338E-06
  1.8338E-06
  1.8338E-06
  1.8338E-06
  1.8338E-06
  1.8338E-06
  1.8338E-06
  1.8338E-06
  1.8338E-06
  6.8521E-06
  6.8521E-06
  6.8521E-06
  6.8521E-06
  6.8521E-06
  6.8521E-06
  6.8521E-06
  6.8521E-06
  6.8521E-06
  2.5603E-05
  2.5603E-05
  2.5603E-05
  2.5603E-05
  2.5603E-05
  2.5603E-05
  2.5603E-05
  2.5603E-05
  2.5603E-05
  9.5663E-05
  9.5663E-05
  9.5663E-05
  9.5663E-05
  9.5663E-05
  9.5663E-05
  9.5663E-05
  9.5663E-05
  9.5663E-05
  3.5744E-04
  3.5744E-04
  3.5744E-04
  3.5744E-04
  3.5744E-04
  3.5744E-04
  3.5744E-04
  3.5744E-04
  3.5744E-04
  1.3356E-03
  1.3356E-03
  1.3356E-03
  1.3356E-03
  1.3356E-03
  1.3356E-03
  1.3356E-03
  1.3356E-03
  1.3356E-03
  4.9903E-03
  4.9903E-03
  4.9903E-03
  4.9903E-03
  4.9903E-03
  4.9903E-03
  4.9903E-03
  4.9903E-03
  4.9903E-03
  1.8646E-02
  1.8646E-02
  1.8646E-02
  1.8646E-02
  1.8646E-02
  1.8646E-02
  1.8646E-02
  1.8646E-02
  1.8646E-02
  6.9669E-02
  6.9669E-02
  6.9669E-02
  6.9669E-02
  6.9669E-02
  6.9669E-02
  6.9669E-02
  6.9669E-02
  6.9669E-02
  2.6031E-01
  2.6031E-01
  2.6031E-01
  2.6031E-01
  2.6031E-01
  2.6031E-01
  2.6031E-01
  2.6031E-01
  2.6031E-01
  9.7265E-01
  9.7265E-01
  9.7265E-01
  9.7265E-01
  9.7265E-01
  9.7265E-01
  9.7265E-01
  9.7265E-01
  9.7265E-01
  1.5346E+00
  1.5346E+00
  1.5346E+00
  1.5346E+00
  1.5346E+00
  1.5346E+00
  1.5346E+00
  1.5346E+00
  1.5346E+00
   2.9600E-02
  1.5001E-11
  1.5001E-11
  1.5001E-11
  1.5001E-11
  1.5001E-11
  1.5001E-11
  1.5001E-11
  1.5001E-11
  1.5001E-11
  4.5093E-11
  4.5093E-11
  4.5093E-11
  4.5093E-11
  4.5093E-11
  4.5093E-11
  4.5093E-11
  4.5093E-11
  4.5093E-11
  1.8062E-10
  1.8062E-10
  1.8062E-10
  1.8062E-10
  1.8062E-10
  1.8062E-10
  1.8062E-10
  1.8062E-10
  1.8062E-10
  6.7813E-10
  6.7813E-10
  6.7813E-10
  6.7813E-10
  6.7813E-10
  6.7813E-10
  6.7813E-10
  6.7813E-10
  6.7813E-10
  2.5347E-09
  2.5347E-09
  2.5347E-09
  2.5347E-09
  2.5347E-09
  2.5347E-09
  2.5347E-09
  2.5347E-09
  2.5347E-09
  9.4712E-09
  9.4712E-09
  9.4712E-09
  9.4712E-09
  9.4712E-09
  9.4712E-09
  9.4712E-09
  9.4712E-09
  9.4712E-09
  3.5389E-08
  3.5389E-08
  3.5389E-08
  3.5389E-08
  3.5389E-08
  3.5389E-08
  3.5389E-08
  3.5389E-08
  3.5389E-08
  1.3223E-07
  1.3223E-07
  1.3223E-07
  1.3223E-07
  1.3223E-07
  1.3223E-07
  1.3223E-07
  1.3223E-07
  1.3223E-07
  4.9408E-07
  4.9408E-07
  4.9408E-07
  4.9408E-07
  4.9408E-07
  4.9408E-07
  4.9408E-07
  4.9408E-07
  4.9408E-07
  1.8461E-06
  1.8461E-06
  1.8461E-06
  1.8461E-06
  1.8461E-06
  1.8461E-06
  1.8461E-06
  1.8461E-06
  1.8461E-06
  6.8981E-06
  6.8981E-06
  6.8981E-06
  6.8981E-06
  6.8981E-06
  6.8981E-06
  6.8981E-06
  6.8981E-06
  6.8981E-06
  2.5775E-05
  2.5775E-05
  2.5775E-05
  2.5775E-05
  2.5775E-05
  2.5775E-05
  2.5775E-05
  2.5775E-05
  2.5775E-05
  9.6307E-05
  9.6307E-05
  9.6307E-05
  9.6307E-05
  9.6307E-05
  9.6307E-05
  9.6307E-05
  9.6307E-05
  9.6307E-05
  3.5985E-04
  3.5985E-04
  3.5985E-04
  3.5985E-04
  3.5985E-04
  3.5985E-04
  3.5985E-04
  3.5985E-04
  3.5985E-04
  1.3446E-03
  1.3446E-03
  1.3446E-03
  1.3446E-03
  1.3446E-03
  1.3446E-03
  1.3446E-03
  1.3446E-03
  1.3446E-03
  5.0239E-03
  5.0239E-03
  5.0239E-03
  5.0239E-03
  5.0239E-03
  5.0239E-03
  5.0239E-03
  5.0239E-03
  5.0239E-03
  1.8772E-02
  1.8772E-02
  1.8772E-02
  1.8772E-02
  1.8772E-02
  1.8772E-02
  1.8772E-02
  1.8772E-02
  1.8772E-02
  7.0141E-02
  7.0141E-02
  7.0141E-02
  7.0141E-02
  7.0141E-02
  7.0141E-02
  7.0141E-02
  7.0141E-02
  7.0141E-02
  2.6208E-01
  2.6208E-01
  2.6208E-01
  2.6208E-01
  2.6208E-01
  2.6208E-01
  2.6208E-01
  2.6208E-01
  2.6208E-01
  9.7925E-01
  9.7925E-01
  9.7925E-01
  9.7925E-01
  9.7925E-01
  9.7925E-01
  9.7925E-01
  9.7925E-01
  9.7925E-01
  1.5450E+00
  1.5450E+00
  1.5450E+00
  1.5450E+00
  1.5450E+00
  1.5450E+00
  1.5450E+00
  1.5450E+00
  1.5450E+00
   2.9700E-02
  1.5100E-11
  1.5100E-11
  1.5100E-11
  1.5100E-11
  1.5100E-11
  1.5100E-11
  1.5100E-11
  1.5100E-11
  1.5100E-11
  4.5391E-11
  4.5391E-11
  4.5391E-11
  4.5391E-11
  4.5391E-11
  4.5391E-11
  4.5391E-11
  4.5391E-11
  4.5391E-11
  1.8181E-10
  1.8181E-10
  1.8181E-10
  1.8181E-10
  1.8181E-10
  1.8181E-10
  1.8181E-10
  1.8181E-10
  1.8181E-10
  6.8263E-10
  6.8263E-10
  6.8263E-10
  6.8263E-10
  6.8263E-10
  6.8263E-10
  6.8263E-10
  6.8263E-10
  6.8263E-10
  2.5515E-09
  2.5515E-09
  2.5515E-09
  2.5515E-09
  2.5515E-09
  2.5515E-09
  2.5515E-09
  2.5515E-09
  2.5515E-09
  9.5341E-09
  9.5341E-09
  9.5341E-09
  9.5341E-09
  9.5341E-09
  9.5341E-09
  9.5341E-09
  9.5341E-09
  9.5341E-09
  3.5625E-08
  3.5625E-08
  3.5625E-08
  3.5625E-08
  3.5625E-08
  3.5625E-08
  3.5625E-08
  3.5625E-08
  3.5625E-08
  1.3311E-07
  1.3311E-07
  1.3311E-07
  1.3311E-07
  1.3311E-07
  1.3311E-07
  1.3311E-07
  1.3311E-07
  1.3311E-07
  4.9738E-07
  4.9738E-07
  4.9738E-07
  4.9738E-07
  4.9738E-07
  4.9738E-07
  4.9738E-07
  4.9738E-07
  4.9738E-07
  1.8585E-06
  1.8585E-06
  1.8585E-06
  1.8585E-06
  1.8585E-06
  1.8585E-06
  1.8585E-06
  1.8585E-06
  1.8585E-06
  6.9442E-06
  6.9442E-06
  6.9442E-06
  6.9442E-06
  6.9442E-06
  6.9442E-06
  6.9442E-06
  6.9442E-06
  6.9442E-06
  2.5947E-05
  2.5947E-05
  2.5947E-05
  2.5947E-05
  2.5947E-05
  2.5947E-05
  2.5947E-05
  2.5947E-05
  2.5947E-05
  9.6952E-05
  9.6952E-05
  9.6952E-05
  9.6952E-05
  9.6952E-05
  9.6952E-05
  9.6952E-05
  9.6952E-05
  9.6952E-05
  3.6226E-04
  3.6226E-04
  3.6226E-04
  3.6226E-04
  3.6226E-04
  3.6226E-04
  3.6226E-04
  3.6226E-04
  3.6226E-04
  1.3536E-03
  1.3536E-03
  1.3536E-03
  1.3536E-03
  1.3536E-03
  1.3536E-03
  1.3536E-03
  1.3536E-03
  1.3536E-03
  5.0578E-03
  5.0578E-03
  5.0578E-03
  5.0578E-03
  5.0578E-03
  5.0578E-03
  5.0578E-03
  5.0578E-03
  5.0578E-03
  1.8898E-02
  1.8898E-02
  1.8898E-02
  1.8898E-02
  1.8898E-02
  1.8898E-02
  1.8898E-02
  1.8898E-02
  1.8898E-02
  7.0614E-02
  7.0614E-02
  7.0614E-02
  7.0614E-02
  7.0614E-02
  7.0614E-02
  7.0614E-02
  7.0614E-02
  7.0614E-02
  2.6385E-01
  2.6385E-01
  2.6385E-01
  2.6385E-01
  2.6385E-01
  2.6385E-01
  2.6385E-01
  2.6385E-01
  2.6385E-01
  9.8587E-01
  9.8587E-01
  9.8587E-01
  9.8587E-01
  9.8587E-01
  9.8587E-01
  9.8587E-01
  9.8587E-01
  9.8587E-01
  1.5554E+00
  1.5554E+00
  1.5554E+00
  1.5554E+00
  1.5554E+00
  1.5554E+00
  1.5554E+00
  1.5554E+00
  1.5554E+00
   2.9800E-02
  1.5199E-11
  1.5199E-11
  1.5199E-11
  1.5199E-11
  1.5199E-11
  1.5199E-11
  1.5199E-11
  1.5199E-11
  1.5199E-11
  4.5690E-11
  4.5690E-11
  4.5690E-11
  4.5690E-11
  4.5690E-11
  4.5690E-11
  4.5690E-11
  4.5690E-11
  4.5690E-11
  1.8301E-10
  1.8301E-10
  1.8301E-10
  1.8301E-10
  1.8301E-10
  1.8301E-10
  1.8301E-10
  1.8301E-10
  1.8301E-10
  6.8714E-10
  6.8714E-10
  6.8714E-10
  6.8714E-10
  6.8714E-10
  6.8714E-10
  6.8714E-10
  6.8714E-10
  6.8714E-10
  2.5684E-09
  2.5684E-09
  2.5684E-09
  2.5684E-09
  2.5684E-09
  2.5684E-09
  2.5684E-09
  2.5684E-09
  2.5684E-09
  9.5973E-09
  9.5973E-09
  9.5973E-09
  9.5973E-09
  9.5973E-09
  9.5973E-09
  9.5973E-09
  9.5973E-09
  9.5973E-09
  3.5861E-08
  3.5861E-08
  3.5861E-08
  3.5861E-08
  3.5861E-08
  3.5861E-08
  3.5861E-08
  3.5861E-08
  3.5861E-08
  1.3400E-07
  1.3400E-07
  1.3400E-07
  1.3400E-07
  1.3400E-07
  1.3400E-07
  1.3400E-07
  1.3400E-07
  1.3400E-07
  5.0069E-07
  5.0069E-07
  5.0069E-07
  5.0069E-07
  5.0069E-07
  5.0069E-07
  5.0069E-07
  5.0069E-07
  5.0069E-07
  1.8708E-06
  1.8708E-06
  1.8708E-06
  1.8708E-06
  1.8708E-06
  1.8708E-06
  1.8708E-06
  1.8708E-06
  1.8708E-06
  6.9905E-06
  6.9905E-06
  6.9905E-06
  6.9905E-06
  6.9905E-06
  6.9905E-06
  6.9905E-06
  6.9905E-06
  6.9905E-06
  2.6120E-05
  2.6120E-05
  2.6120E-05
  2.6120E-05
  2.6120E-05
  2.6120E-05
  2.6120E-05
  2.6120E-05
  2.6120E-05
  9.7600E-05
  9.7600E-05
  9.7600E-05
  9.7600E-05
  9.7600E-05
  9.7600E-05
  9.7600E-05
  9.7600E-05
  9.7600E-05
  3.6469E-04
  3.6469E-04
  3.6469E-04
  3.6469E-04
  3.6469E-04
  3.6469E-04
  3.6469E-04
  3.6469E-04
  3.6469E-04
  1.3627E-03
  1.3627E-03
  1.3627E-03
  1.3627E-03
  1.3627E-03
  1.3627E-03
  1.3627E-03
  1.3627E-03
  1.3627E-03
  5.0917E-03
  5.0917E-03
  5.0917E-03
  5.0917E-03
  5.0917E-03
  5.0917E-03
  5.0917E-03
  5.0917E-03
  5.0917E-03
  1.9025E-02
  1.9025E-02
  1.9025E-02
  1.9025E-02
  1.9025E-02
  1.9025E-02
  1.9025E-02
  1.9025E-02
  1.9025E-02
  7.1088E-02
  7.1088E-02
  7.1088E-02
  7.1088E-02
  7.1088E-02
  7.1088E-02
  7.1088E-02
  7.1088E-02
  7.1088E-02
  2.6562E-01
  2.6562E-01
  2.6562E-01
  2.6562E-01
  2.6562E-01
  2.6562E-01
  2.6562E-01
  2.6562E-01
  2.6562E-01
  9.9251E-01
  9.9251E-01
  9.9251E-01
  9.9251E-01
  9.9251E-01
  9.9251E-01
  9.9251E-01
  9.9251E-01
  9.9251E-01
  1.5659E+00
  1.5659E+00
  1.5659E+00
  1.5659E+00
  1.5659E+00
  1.5659E+00
  1.5659E+00
  1.5659E+00
  1.5659E+00
   2.9900E-02
  1.5299E-11
  1.5299E-11
  1.5299E-11
  1.5299E-11
  1.5299E-11
  1.5299E-11
  1.5299E-11
  1.5299E-11
  1.5299E-11
  4.5991E-11
  4.5991E-11
  4.5991E-11
  4.5991E-11
  4.5991E-11
  4.5991E-11
  4.5991E-11
  4.5991E-11
  4.5991E-11
  1.8422E-10
  1.8422E-10
  1.8422E-10
  1.8422E-10
  1.8422E-10
  1.8422E-10
  1.8422E-10
  1.8422E-10
  1.8422E-10
  6.9166E-10
  6.9166E-10
  6.9166E-10
  6.9166E-10
  6.9166E-10
  6.9166E-10
  6.9166E-10
  6.9166E-10
  6.9166E-10
  2.5853E-09
  2.5853E-09
  2.5853E-09
  2.5853E-09
  2.5853E-09
  2.5853E-09
  2.5853E-09
  2.5853E-09
  2.5853E-09
  9.6606E-09
  9.6606E-09
  9.6606E-09
  9.6606E-09
  9.6606E-09
  9.6606E-09
  9.6606E-09
  9.6606E-09
  9.6606E-09
  3.6098E-08
  3.6098E-08
  3.6098E-08
  3.6098E-08
  3.6098E-08
  3.6098E-08
  3.6098E-08
  3.6098E-08
  3.6098E-08
  1.3488E-07
  1.3488E-07
  1.3488E-07
  1.3488E-07
  1.3488E-07
  1.3488E-07
  1.3488E-07
  1.3488E-07
  1.3488E-07
  5.0401E-07
  5.0401E-07
  5.0401E-07
  5.0401E-07
  5.0401E-07
  5.0401E-07
  5.0401E-07
  5.0401E-07
  5.0401E-07
  1.8833E-06
  1.8833E-06
  1.8833E-06
  1.8833E-06
  1.8833E-06
  1.8833E-06
  1.8833E-06
  1.8833E-06
  1.8833E-06
  7.0370E-06
  7.0370E-06
  7.0370E-06
  7.0370E-06
  7.0370E-06
  7.0370E-06
  7.0370E-06
  7.0370E-06
  7.0370E-06
  2.6294E-05
  2.6294E-05
  2.6294E-05
  2.6294E-05
  2.6294E-05
  2.6294E-05
  2.6294E-05
  2.6294E-05
  2.6294E-05
  9.8250E-05
  9.8250E-05
  9.8250E-05
  9.8250E-05
  9.8250E-05
  9.8250E-05
  9.8250E-05
  9.8250E-05
  9.8250E-05
  3.6712E-04
  3.6712E-04
  3.6712E-04
  3.6712E-04
  3.6712E-04
  3.6712E-04
  3.6712E-04
  3.6712E-04
  3.6712E-04
  1.3718E-03
  1.3718E-03
  1.3718E-03
  1.3718E-03
  1.3718E-03
  1.3718E-03
  1.3718E-03
  1.3718E-03
  1.3718E-03
  5.1257E-03
  5.1257E-03
  5.1257E-03
  5.1257E-03
  5.1257E-03
  5.1257E-03
  5.1257E-03
  5.1257E-03
  5.1257E-03
  1.9153E-02
  1.9153E-02
  1.9153E-02
  1.9153E-02
  1.9153E-02
  1.9153E-02
  1.9153E-02
  1.9153E-02
  1.9153E-02
  7.1565E-02
  7.1565E-02
  7.1565E-02
  7.1565E-02
  7.1565E-02
  7.1565E-02
  7.1565E-02
  7.1565E-02
  7.1565E-02
  2.6741E-01
  2.6741E-01
  2.6741E-01
  2.6741E-01
  2.6741E-01
  2.6741E-01
  2.6741E-01
  2.6741E-01
  2.6741E-01
  9.9918E-01
  9.9918E-01
  9.9918E-01
  9.9918E-01
  9.9918E-01
  9.9918E-01
  9.9918E-01
  9.9918E-01
  9.9918E-01
  1.5765E+00
  1.5765E+00
  1.5765E+00
  1.5765E+00
  1.5765E+00
  1.5765E+00
  1.5765E+00
  1.5765E+00
  1.5765E+00
   3.0000E-02
  1.5399E-11
  1.5399E-11
  1.5399E-11
  1.5399E-11
  1.5399E-11
  1.5399E-11
  1.5399E-11
  1.5399E-11
  1.5399E-11
  4.6291E-11
  4.6291E-11
  4.6291E-11
  4.6291E-11
  4.6291E-11
  4.6291E-11
  4.6291E-11
  4.6291E-11
  4.6291E-11
  1.8543E-10
  1.8543E-10
  1.8543E-10
  1.8543E-10
  1.8543E-10
  1.8543E-10
  1.8543E-10
  1.8543E-10
  1.8543E-10
  6.9620E-10
  6.9620E-10
  6.9620E-10
  6.9620E-10
  6.9620E-10
  6.9620E-10
  6.9620E-10
  6.9620E-10
  6.9620E-10
  2.6023E-09
  2.6023E-09
  2.6023E-09
  2.6023E-09
  2.6023E-09
  2.6023E-09
  2.6023E-09
  2.6023E-09
  2.6023E-09
  9.7242E-09
  9.7242E-09
  9.7242E-09
  9.7242E-09
  9.7242E-09
  9.7242E-09
  9.7242E-09
  9.7242E-09
  9.7242E-09
  3.6336E-08
  3.6336E-08
  3.6336E-08
  3.6336E-08
  3.6336E-08
  3.6336E-08
  3.6336E-08
  3.6336E-08
  3.6336E-08
  1.3577E-07
  1.3577E-07
  1.3577E-07
  1.3577E-07
  1.3577E-07
  1.3577E-07
  1.3577E-07
  1.3577E-07
  1.3577E-07
  5.0733E-07
  5.0733E-07
  5.0733E-07
  5.0733E-07
  5.0733E-07
  5.0733E-07
  5.0733E-07
  5.0733E-07
  5.0733E-07
  1.8957E-06
  1.8957E-06
  1.8957E-06
  1.8957E-06
  1.8957E-06
  1.8957E-06
  1.8957E-06
  1.8957E-06
  1.8957E-06
  7.0835E-06
  7.0835E-06
  7.0835E-06
  7.0835E-06
  7.0835E-06
  7.0835E-06
  7.0835E-06
  7.0835E-06
  7.0835E-06
  2.6468E-05
  2.6468E-05
  2.6468E-05
  2.6468E-05
  2.6468E-05
  2.6468E-05
  2.6468E-05
  2.6468E-05
  2.6468E-05
  9.8902E-05
  9.8902E-05
  9.8902E-05
  9.8902E-05
  9.8902E-05
  9.8902E-05
  9.8902E-05
  9.8902E-05
  9.8902E-05
  3.6956E-04
  3.6956E-04
  3.6956E-04
  3.6956E-04
  3.6956E-04
  3.6956E-04
  3.6956E-04
  3.6956E-04
  3.6956E-04
  1.3809E-03
  1.3809E-03
  1.3809E-03
  1.3809E-03
  1.3809E-03
  1.3809E-03
  1.3809E-03
  1.3809E-03
  1.3809E-03
  5.1598E-03
  5.1598E-03
  5.1598E-03
  5.1598E-03
  5.1598E-03
  5.1598E-03
  5.1598E-03
  5.1598E-03
  5.1598E-03
  1.9280E-02
  1.9280E-02
  1.9280E-02
  1.9280E-02
  1.9280E-02
  1.9280E-02
  1.9280E-02
  1.9280E-02
  1.9280E-02
  7.2042E-02
  7.2042E-02
  7.2042E-02
  7.2042E-02
  7.2042E-02
  7.2042E-02
  7.2042E-02
  7.2042E-02
  7.2042E-02
  2.6919E-01
  2.6919E-01
  2.6919E-01
  2.6919E-01
  2.6919E-01
  2.6919E-01
  2.6919E-01
  2.6919E-01
  2.6919E-01
  1.0059E+00
  1.0059E+00
  1.0059E+00
  1.0059E+00
  1.0059E+00
  1.0059E+00
  1.0059E+00
  1.0059E+00
  1.0059E+00
  1.5870E+00
  1.5870E+00
  1.5870E+00
  1.5870E+00
  1.5870E+00
  1.5870E+00
  1.5870E+00
  1.5870E+00
  1.5870E+00
