Scalar VONMISES under Dynam for nodeset
189
   0.0000E+00
  0.0000E+00
  0.0000E+00
  0.0000E+00
  0.0000E+00
  0.0000E+00
  0.0000E+00
  0.0000E+00
  0.0000E+00
  0.0000E+00
  0.0000E+00
  0.0000E+00
  0.0000E+00
  0.0000E+00
  0.0000E+00
  0.0000E+00
  0.0000E+00
  0.0000E+00
  0.0000E+00
  0.0000E+00
  0.0000E+00
  0.0000E+00
  0.0000E+00
  0.0000E+00
  0.0000E+00
  0.0000E+00
  0.0000E+00
  0.0000E+00
  0.0000E+00
  0.0000E+00
  0.0000E+00
  0.0000E+00
  0.0000E+00
  0.0000E+00
  0.0000E+00
  0.0000E+00
  0.0000E+00
  0.0000E+00
  0.0000E+00
  0.0000E+00
  0.0000E+00
  0.0000E+00
  0.0000E+00
  0.0000E+00
  0.0000E+00
  0.0000E+00
  0.0000E+00
  0.0000E+00
  0.0000E+00
  0.0000E+00
  0.0000E+00
  0.0000E+00
  0.0000E+00
  0.0000E+00
  0.0000E+00
  0.0000E+00
  0.0000E+00
  0.0000E+00
  0.0000E+00
  0.0000E+00
  0.0000E+00
  0.0000E+00
  0.0000E+00
  0.0000E+00
  0.0000E+00
  0.0000E+00
  0.0000E+00
  0.0000E+00
  0.0000E+00
  0.0000E+00
  0.0000E+00
  0.0000E+00
  0.0000E+00
  0.0000E+00
  0.0000E+00
  0.0000E+00
  0.0000E+00
  0.0000E+00
  0.0000E+00
  0.0000E+00
  0.0000E+00
  0.0000E+00
  0.0000E+00
  0.0000E+00
  0.0000E+00
  0.0000E+00
  0.0000E+00
  0.0000E+00
  0.0000E+00
  0.0000E+00
  0.0000E+00
  0.0000E+00
  0.0000E+00
  0.0000E+00
  0.0000E+00
  0.0000E+00
  0.0000E+00
  0.0000E+00
  0.0000E+00
  0.0000E+00
  0.0000E+00
  0.0000E+00
  0.0000E+00
  0.0000E+00
  0.0000E+00
  0.0000E+00
  0.0000E+00
  0.0000E+00
  0.0000E+00
  0.0000E+00
  0.0000E+00
  0.0000E+00
  0.0000E+00
  0.0000E+00
  0.0000E+00
  0.0000E+00
  0.0000E+00
  0.0000E+00
  0.0000E+00
  0.0000E+00
  0.0000E+00
  0.0000E+00
  0.0000E+00
  0.0000E+00
  0.0000E+00
  0.0000E+00
  0.0000E+00
  0.0000E+00
  0.0000E+00
  0.0000E+00
  0.0000E+00
  0.0000E+00
  0.0000E+00
  0.0000E+00
  0.0000E+00
  0.0000E+00
  0.0000E+00
  0.0000E+00
  0.0000E+00
  0.0000E+00
  0.0000E+00
  0.0000E+00
  0.0000E+00
  0.0000E+00
  0.0000E+00
  0.0000E+00
  0.0000E+00
  0.0000E+00
  0.0000E+00
  0.0000E+00
  0.0000E+00
  0.0000E+00
  0.0000E+00
  0.0000E+00
  0.0000E+00
  0.0000E+00
  0.0000E+00
  0.0000E+00
  0.0000E+00
  0.0000E+00
  0.0000E+00
  0.0000E+00
  0.0000E+00
  0.0000E+00
  0.0000E+00
  0.0000E+00
  0.0000E+00
  0.0000E+00
  0.0000E+00
  0.0000E+00
  0.0000E+00
  0.0000E+00
  0.0000E+00
  0.0000E+00
  0.0000E+00
  0.0000E+00
  0.0000E+00
  0.0000E+00
  0.0000E+00
  0.0000E+00
  0.0000E+00
  0.0000E+00
  0.0000E+00
  0.0000E+00
  0.0000E+00
  0.0000E+00
  0.0000E+00
  0.0000E+00
  0.0000E+00
  0.0000E+00
   3.0000E+02
  6.3960E+02
  5.5532E+02
  6.3960E+02
  5.5532E+02
  4.7326E+02
  5.5532E+02
  6.3960E+02
  5.5532E+02
  6.3960E+02
  8.1933E+02
  7.8988E+02
  8.1933E+02
  7.8988E+02
  7.5150E+02
  7.8988E+02
  8.1933E+02
  7.8988E+02
  8.1933E+02
  7.6617E+02
  7.9825E+02
  7.6617E+02
  7.9825E+02
  8.3085E+02
  7.9825E+02
  7.6617E+02
  7.9825E+02
  7.6617E+02
  6.2140E+02
  6.7596E+02
  6.2140E+02
  6.7596E+02
  7.5334E+02
  6.7596E+02
  6.2140E+02
  6.7596E+02
  6.2140E+02
  4.8521E+02
  4.7229E+02
  4.8521E+02
  4.7229E+02
  4.5696E+02
  4.7229E+02
  4.8521E+02
  4.7229E+02
  4.8521E+02
  3.9864E+02
  3.4226E+02
  3.9864E+02
  3.4226E+02
  2.5053E+02
  3.4226E+02
  3.9864E+02
  3.4226E+02
  3.9864E+02
  4.6310E+02
  5.0579E+02
  4.6310E+02
  5.0579E+02
  5.6063E+02
  5.0579E+02
  4.6310E+02
  5.0579E+02
  4.6310E+02
  5.9053E+02
  6.3945E+02
  5.9053E+02
  6.3945E+02
  6.8393E+02
  6.3945E+02
  5.9053E+02
  6.3945E+02
  5.9053E+02
  4.2631E+02
  4.1760E+02
  4.2631E+02
  4.1760E+02
  4.2538E+02
  4.1760E+02
  4.2631E+02
  4.1760E+02
  4.2631E+02
  1.5740E+02
  1.2090E+02
  1.5740E+02
  1.2090E+02
  1.6670E+02
  1.2090E+02
  1.5740E+02
  1.2090E+02
  1.5740E+02
  1.2715E+02
  1.1280E+02
  1.2715E+02
  1.1280E+02
  1.4107E+02
  1.1280E+02
  1.2715E+02
  1.1280E+02
  1.2715E+02
  5.2470E+01
  6.3241E+01
  5.2470E+01
  6.3241E+01
  1.7166E+02
  6.3241E+01
  5.2470E+01
  6.3241E+01
  5.2470E+01
  1.5102E+02
  1.5638E+02
  1.5102E+02
  1.5638E+02
  1.9680E+02
  1.5638E+02
  1.5102E+02
  1.5638E+02
  1.5102E+02
  2.6756E+02
  2.8366E+02
  2.6756E+02
  2.8366E+02
  2.0764E+02
  2.8366E+02
  2.6756E+02
  2.8366E+02
  2.6756E+02
  4.3009E+02
  4.1890E+02
  4.3009E+02
  4.1890E+02
  4.0215E+02
  4.1890E+02
  4.3009E+02
  4.1890E+02
  4.3009E+02
  6.7178E+02
  6.3363E+02
  6.7178E+02
  6.3363E+02
  6.7292E+02
  6.3363E+02
  6.7178E+02
  6.3363E+02
  6.7178E+02
  8.4263E+02
  8.4535E+02
  8.4263E+02
  8.4535E+02
  8.2862E+02
  8.4535E+02
  8.4263E+02
  8.4535E+02
  8.4263E+02
  9.9604E+02
  9.8441E+02
  9.9604E+02
  9.8441E+02
  9.4062E+02
  9.8441E+02
  9.9604E+02
  9.8441E+02
  9.9604E+02
  1.2118E+03
  1.1779E+03
  1.2118E+03
  1.1779E+03
  1.1595E+03
  1.1779E+03
  1.2118E+03
  1.1779E+03
  1.2118E+03
  1.3011E+03
  1.2909E+03
  1.3011E+03
  1.2909E+03
  1.2931E+03
  1.2909E+03
  1.3011E+03
  1.2909E+03
  1.3011E+03
  1.3218E+03
  1.3149E+03
  1.3218E+03
  1.3149E+03
  1.3100E+03
  1.3149E+03
  1.3218E+03
  1.3149E+03
  1.3218E+03
