Scalar VONMISES under Modal for nodeset
189
   5.0054E-01
  1.8173E+01
  1.8173E+01
  1.8173E+01
  1.8173E+01
  1.8173E+01
  1.8173E+01
  1.8173E+01
  1.8173E+01
  1.8173E+01
  2.5398E+01
  2.5398E+01
  2.5398E+01
  2.5398E+01
  2.5398E+01
  2.5398E+01
  2.5398E+01
  2.5398E+01
  2.5398E+01
  3.7506E+01
  3.7506E+01
  3.7506E+01
  3.7506E+01
  3.7506E+01
  3.7506E+01
  3.7506E+01
  3.7506E+01
  3.7506E+01
  4.0506E+01
  4.0506E+01
  4.0506E+01
  4.0506E+01
  4.0506E+01
  4.0506E+01
  4.0506E+01
  4.0506E+01
  4.0506E+01
  3.2138E+01
  3.2138E+01
  3.2138E+01
  3.2138E+01
  3.2138E+01
  3.2138E+01
  3.2138E+01
  3.2138E+01
  3.2138E+01
  2.5835E+01
  2.5835E+01
  2.5835E+01
  2.5835E+01
  2.5835E+01
  2.5835E+01
  2.5835E+01
  2.5835E+01
  2.5835E+01
  3.1589E+01
  3.1589E+01
  3.1589E+01
  3.1589E+01
  3.1589E+01
  3.1589E+01
  3.1589E+01
  3.1589E+01
  3.1589E+01
  3.9895E+01
  3.9895E+01
  3.9895E+01
  3.9895E+01
  3.9895E+01
  3.9895E+01
  3.9895E+01
  3.9895E+01
  3.9895E+01
  3.7879E+01
  3.7879E+01
  3.7879E+01
  3.7879E+01
  3.7879E+01
  3.7879E+01
  3.7879E+01
  3.7879E+01
  3.7879E+01
  2.8402E+01
  2.8402E+01
  2.8402E+01
  2.8402E+01
  2.8402E+01
  2.8402E+01
  2.8402E+01
  2.8402E+01
  2.8402E+01
  2.6134E+01
  2.6134E+01
  2.6134E+01
  2.6134E+01
  2.6134E+01
  2.6134E+01
  2.6134E+01
  2.6134E+01
  2.6134E+01
  3.4562E+01
  3.4562E+01
  3.4562E+01
  3.4562E+01
  3.4562E+01
  3.4562E+01
  3.4562E+01
  3.4562E+01
  3.4562E+01
  4.0195E+01
  4.0195E+01
  4.0195E+01
  4.0195E+01
  4.0195E+01
  4.0195E+01
  4.0195E+01
  4.0195E+01
  4.0195E+01
  3.4001E+01
  3.4001E+01
  3.4001E+01
  3.4001E+01
  3.4001E+01
  3.4001E+01
  3.4001E+01
  3.4001E+01
  3.4001E+01
  2.7236E+01
  2.7236E+01
  2.7236E+01
  2.7236E+01
  2.7236E+01
  2.7236E+01
  2.7236E+01
  2.7236E+01
  2.7236E+01
  3.0888E+01
  3.0888E+01
  3.0888E+01
  3.0888E+01
  3.0888E+01
  3.0888E+01
  3.0888E+01
  3.0888E+01
  3.0888E+01
  3.9037E+01
  3.9037E+01
  3.9037E+01
  3.9037E+01
  3.9037E+01
  3.9037E+01
  3.9037E+01
  3.9037E+01
  3.9037E+01
  3.8849E+01
  3.8849E+01
  3.8849E+01
  3.8849E+01
  3.8849E+01
  3.8849E+01
  3.8849E+01
  3.8849E+01
  3.8849E+01
  2.8067E+01
  2.8067E+01
  2.8067E+01
  2.8067E+01
  2.8067E+01
  2.8067E+01
  2.8067E+01
  2.8067E+01
  2.8067E+01
  1.7036E+01
  1.7036E+01
  1.7036E+01
  1.7036E+01
  1.7036E+01
  1.7036E+01
  1.7036E+01
  1.7036E+01
  1.7036E+01
  1.3009E+01
  1.3009E+01
  1.3009E+01
  1.3009E+01
  1.3009E+01
  1.3009E+01
  1.3009E+01
  1.3009E+01
  1.3009E+01
   5.0054E-01
  1.4776E+01
  1.4776E+01
  1.4776E+01
  1.4776E+01
  1.4776E+01
  1.4776E+01
  1.4776E+01
  1.4776E+01
  1.4776E+01
  2.0650E+01
  2.0650E+01
  2.0650E+01
  2.0650E+01
  2.0650E+01
  2.0650E+01
  2.0650E+01
  2.0650E+01
  2.0650E+01
  3.0494E+01
  3.0494E+01
  3.0494E+01
  3.0494E+01
  3.0494E+01
  3.0494E+01
  3.0494E+01
  3.0494E+01
  3.0494E+01
  3.2934E+01
  3.2934E+01
  3.2934E+01
  3.2934E+01
  3.2934E+01
  3.2934E+01
  3.2934E+01
  3.2934E+01
  3.2934E+01
  2.6130E+01
  2.6130E+01
  2.6130E+01
  2.6130E+01
  2.6130E+01
  2.6130E+01
  2.6130E+01
  2.6130E+01
  2.6130E+01
  2.1005E+01
  2.1005E+01
  2.1005E+01
  2.1005E+01
  2.1005E+01
  2.1005E+01
  2.1005E+01
  2.1005E+01
  2.1005E+01
  2.5684E+01
  2.5684E+01
  2.5684E+01
  2.5684E+01
  2.5684E+01
  2.5684E+01
  2.5684E+01
  2.5684E+01
  2.5684E+01
  3.2437E+01
  3.2437E+01
  3.2437E+01
  3.2437E+01
  3.2437E+01
  3.2437E+01
  3.2437E+01
  3.2437E+01
  3.2437E+01
  3.0798E+01
  3.0798E+01
  3.0798E+01
  3.0798E+01
  3.0798E+01
  3.0798E+01
  3.0798E+01
  3.0798E+01
  3.0798E+01
  2.3093E+01
  2.3093E+01
  2.3093E+01
  2.3093E+01
  2.3093E+01
  2.3093E+01
  2.3093E+01
  2.3093E+01
  2.3093E+01
  2.1248E+01
  2.1248E+01
  2.1248E+01
  2.1248E+01
  2.1248E+01
  2.1248E+01
  2.1248E+01
  2.1248E+01
  2.1248E+01
  2.8101E+01
  2.8101E+01
  2.8101E+01
  2.8101E+01
  2.8101E+01
  2.8101E+01
  2.8101E+01
  2.8101E+01
  2.8101E+01
  3.2681E+01
  3.2681E+01
  3.2681E+01
  3.2681E+01
  3.2681E+01
  3.2681E+01
  3.2681E+01
  3.2681E+01
  3.2681E+01
  2.7645E+01
  2.7645E+01
  2.7645E+01
  2.7645E+01
  2.7645E+01
  2.7645E+01
  2.7645E+01
  2.7645E+01
  2.7645E+01
  2.2144E+01
  2.2144E+01
  2.2144E+01
  2.2144E+01
  2.2144E+01
  2.2144E+01
  2.2144E+01
  2.2144E+01
  2.2144E+01
  2.5113E+01
  2.5113E+01
  2.5113E+01
  2.5113E+01
  2.5113E+01
  2.5113E+01
  2.5113E+01
  2.5113E+01
  2.5113E+01
  3.1739E+01
  3.1739E+01
  3.1739E+01
  3.1739E+01
  3.1739E+01
  3.1739E+01
  3.1739E+01
  3.1739E+01
  3.1739E+01
  3.1586E+01
  3.1586E+01
  3.1586E+01
  3.1586E+01
  3.1586E+01
  3.1586E+01
  3.1586E+01
  3.1586E+01
  3.1586E+01
  2.2820E+01
  2.2820E+01
  2.2820E+01
  2.2820E+01
  2.2820E+01
  2.2820E+01
  2.2820E+01
  2.2820E+01
  2.2820E+01
  1.3852E+01
  1.3852E+01
  1.3852E+01
  1.3852E+01
  1.3852E+01
  1.3852E+01
  1.3852E+01
  1.3852E+01
  1.3852E+01
  1.0577E+01
  1.0577E+01
  1.0577E+01
  1.0577E+01
  1.0577E+01
  1.0577E+01
  1.0577E+01
  1.0577E+01
  1.0577E+01
   5.0054E-01
  3.5464E+01
  3.5464E+01
  3.5464E+01
  3.5464E+01
  3.5464E+01
  3.5464E+01
  3.5464E+01
  3.5464E+01
  3.5464E+01
  4.9564E+01
  4.9564E+01
  4.9564E+01
  4.9564E+01
  4.9564E+01
  4.9564E+01
  4.9564E+01
  4.9564E+01
  4.9564E+01
  7.3192E+01
  7.3192E+01
  7.3192E+01
  7.3192E+01
  7.3192E+01
  7.3192E+01
  7.3192E+01
  7.3192E+01
  7.3192E+01
  7.9047E+01
  7.9047E+01
  7.9047E+01
  7.9047E+01
  7.9047E+01
  7.9047E+01
  7.9047E+01
  7.9047E+01
  7.9047E+01
  6.2717E+01
  6.2717E+01
  6.2717E+01
  6.2717E+01
  6.2717E+01
  6.2717E+01
  6.2717E+01
  6.2717E+01
  6.2717E+01
  5.0416E+01
  5.0416E+01
  5.0416E+01
  5.0416E+01
  5.0416E+01
  5.0416E+01
  5.0416E+01
  5.0416E+01
  5.0416E+01
  6.1646E+01
  6.1646E+01
  6.1646E+01
  6.1646E+01
  6.1646E+01
  6.1646E+01
  6.1646E+01
  6.1646E+01
  6.1646E+01
  7.7854E+01
  7.7854E+01
  7.7854E+01
  7.7854E+01
  7.7854E+01
  7.7854E+01
  7.7854E+01
  7.7854E+01
  7.7854E+01
  7.3920E+01
  7.3920E+01
  7.3920E+01
  7.3920E+01
  7.3920E+01
  7.3920E+01
  7.3920E+01
  7.3920E+01
  7.3920E+01
  5.5427E+01
  5.5427E+01
  5.5427E+01
  5.5427E+01
  5.5427E+01
  5.5427E+01
  5.5427E+01
  5.5427E+01
  5.5427E+01
  5.1000E+01
  5.1000E+01
  5.1000E+01
  5.1000E+01
  5.1000E+01
  5.1000E+01
  5.1000E+01
  5.1000E+01
  5.1000E+01
  6.7447E+01
  6.7447E+01
  6.7447E+01
  6.7447E+01
  6.7447E+01
  6.7447E+01
  6.7447E+01
  6.7447E+01
  6.7447E+01
  7.8440E+01
  7.8440E+01
  7.8440E+01
  7.8440E+01
  7.8440E+01
  7.8440E+01
  7.8440E+01
  7.8440E+01
  7.8440E+01
  6.6352E+01
  6.6352E+01
  6.6352E+01
  6.6352E+01
  6.6352E+01
  6.6352E+01
  6.6352E+01
  6.6352E+01
  6.6352E+01
  5.3151E+01
  5.3151E+01
  5.3151E+01
  5.3151E+01
  5.3151E+01
  5.3151E+01
  5.3151E+01
  5.3151E+01
  5.3151E+01
  6.0276E+01
  6.0276E+01
  6.0276E+01
  6.0276E+01
  6.0276E+01
  6.0276E+01
  6.0276E+01
  6.0276E+01
  6.0276E+01
  7.6180E+01
  7.6180E+01
  7.6180E+01
  7.6180E+01
  7.6180E+01
  7.6180E+01
  7.6180E+01
  7.6180E+01
  7.6180E+01
  7.5812E+01
  7.5812E+01
  7.5812E+01
  7.5812E+01
  7.5812E+01
  7.5812E+01
  7.5812E+01
  7.5812E+01
  7.5812E+01
  5.4771E+01
  5.4771E+01
  5.4771E+01
  5.4771E+01
  5.4771E+01
  5.4771E+01
  5.4771E+01
  5.4771E+01
  5.4771E+01
  3.3246E+01
  3.3246E+01
  3.3246E+01
  3.3246E+01
  3.3246E+01
  3.3246E+01
  3.3246E+01
  3.3246E+01
  3.3246E+01
  2.5387E+01
  2.5387E+01
  2.5387E+01
  2.5387E+01
  2.5387E+01
  2.5387E+01
  2.5387E+01
  2.5387E+01
  2.5387E+01
   5.0174E-01
  2.3509E+01
  3.1390E+01
  3.9272E+01
  3.1390E+01
  3.1390E+01
  3.1390E+01
  3.9272E+01
  3.1390E+01
  2.3509E+01
  3.6304E+01
  4.8692E+01
  6.1079E+01
  4.8692E+01
  4.8692E+01
  4.8692E+01
  6.1079E+01
  4.8692E+01
  3.6304E+01
  4.5049E+01
  5.8053E+01
  7.1057E+01
  5.8053E+01
  5.8053E+01
  5.8053E+01
  7.1057E+01
  5.8053E+01
  4.5049E+01
  3.5281E+01
  4.3949E+01
  5.2618E+01
  4.3949E+01
  4.3949E+01
  4.3949E+01
  5.2618E+01
  4.3949E+01
  3.5281E+01
  2.7112E+01
  3.5780E+01
  4.4447E+01
  3.5780E+01
  3.5780E+01
  3.5780E+01
  4.4447E+01
  3.5780E+01
  2.7112E+01
  2.2703E+01
  2.9956E+01
  3.7209E+01
  2.9956E+01
  2.9956E+01
  2.9956E+01
  3.7209E+01
  2.9956E+01
  2.2703E+01
  3.3060E+01
  4.4631E+01
  5.6202E+01
  4.4631E+01
  4.4631E+01
  4.4631E+01
  5.6202E+01
  4.4631E+01
  3.3060E+01
  4.3006E+01
  5.8955E+01
  7.4904E+01
  5.8955E+01
  5.8955E+01
  5.8955E+01
  7.4904E+01
  5.8955E+01
  4.3006E+01
  3.3507E+01
  4.3016E+01
  5.2524E+01
  4.3016E+01
  4.3016E+01
  4.3016E+01
  5.2524E+01
  4.3016E+01
  3.3507E+01
  2.8183E+01
  3.3861E+01
  3.9539E+01
  3.3861E+01
  3.3861E+01
  3.3861E+01
  3.9539E+01
  3.3861E+01
  2.8183E+01
  2.4435E+01
  3.0027E+01
  3.5619E+01
  3.0027E+01
  3.0027E+01
  3.0027E+01
  3.5619E+01
  3.0027E+01
  2.4435E+01
  2.8012E+01
  3.9184E+01
  5.0356E+01
  3.9184E+01
  3.9184E+01
  3.9184E+01
  5.0356E+01
  3.9184E+01
  2.8012E+01
  4.0015E+01
  5.8093E+01
  7.6171E+01
  5.8093E+01
  5.8093E+01
  5.8093E+01
  7.6171E+01
  5.8093E+01
  4.0015E+01
  3.5444E+01
  4.6850E+01
  5.8255E+01
  4.6850E+01
  4.6850E+01
  4.6850E+01
  5.8255E+01
  4.6850E+01
  3.5444E+01
  2.9492E+01
  3.4587E+01
  3.9682E+01
  3.4587E+01
  3.4587E+01
  3.4587E+01
  3.9682E+01
  3.4587E+01
  2.9492E+01
  2.6116E+01
  3.1399E+01
  3.6681E+01
  3.1399E+01
  3.1399E+01
  3.1399E+01
  3.6681E+01
  3.1399E+01
  2.6116E+01
  2.8827E+01
  3.7778E+01
  4.6729E+01
  3.7778E+01
  3.7778E+01
  3.7778E+01
  4.6729E+01
  3.7778E+01
  2.8827E+01
  4.3555E+01
  5.9778E+01
  7.6000E+01
  5.9778E+01
  5.9778E+01
  5.9778E+01
  7.6000E+01
  5.9778E+01
  4.3555E+01
  4.1169E+01
  5.4486E+01
  6.7803E+01
  5.4486E+01
  5.4486E+01
  5.4486E+01
  6.7803E+01
  5.4486E+01
  4.1169E+01
  3.0928E+01
  3.8496E+01
  4.6063E+01
  3.8496E+01
  3.8496E+01
  3.8496E+01
  4.6063E+01
  3.8496E+01
  3.0928E+01
  3.0225E+01
  3.7946E+01
  4.5667E+01
  3.7946E+01
  3.7946E+01
  3.7946E+01
  4.5667E+01
  3.7946E+01
  3.0225E+01
   5.0174E-01
  4.6831E+00
  4.8658E+00
  5.0485E+00
  4.8658E+00
  4.8658E+00
  4.8658E+00
  5.0485E+00
  4.8658E+00
  4.6831E+00
  7.2389E+00
  7.5282E+00
  7.8175E+00
  7.5282E+00
  7.5282E+00
  7.5282E+00
  7.8175E+00
  7.5282E+00
  7.2389E+00
  8.6079E+00
  8.9127E+00
  9.2175E+00
  8.9127E+00
  8.9127E+00
  8.9127E+00
  9.2175E+00
  8.9127E+00
  8.6079E+00
  6.5181E+00
  6.7183E+00
  6.9185E+00
  6.7183E+00
  6.7183E+00
  6.7183E+00
  6.9185E+00
  6.7183E+00
  6.5181E+00
  5.2846E+00
  5.4756E+00
  5.6666E+00
  5.4756E+00
  5.4756E+00
  5.4756E+00
  5.6666E+00
  5.4756E+00
  5.2846E+00
  4.4461E+00
  4.6053E+00
  4.7644E+00
  4.6053E+00
  4.6053E+00
  4.6053E+00
  4.7644E+00
  4.6053E+00
  4.4461E+00
  6.6645E+00
  6.9329E+00
  7.2013E+00
  6.9329E+00
  6.9329E+00
  6.9329E+00
  7.2013E+00
  6.9329E+00
  6.6645E+00
  8.7667E+00
  9.1384E+00
  9.5102E+00
  9.1384E+00
  9.1384E+00
  9.1384E+00
  9.5102E+00
  9.1384E+00
  8.7667E+00
  6.3939E+00
  6.6141E+00
  6.8344E+00
  6.6141E+00
  6.6141E+00
  6.6141E+00
  6.8344E+00
  6.6141E+00
  6.3939E+00
  4.8708E+00
  4.9989E+00
  5.1271E+00
  4.9989E+00
  4.9989E+00
  4.9989E+00
  5.1271E+00
  4.9989E+00
  4.8708E+00
  4.2653E+00
  4.3889E+00
  4.5125E+00
  4.3889E+00
  4.3889E+00
  4.3889E+00
  4.5125E+00
  4.3889E+00
  4.2653E+00
  5.8190E+00
  6.0727E+00
  6.3263E+00
  6.0727E+00
  6.0727E+00
  6.0727E+00
  6.3263E+00
  6.0727E+00
  5.8190E+00
  8.6816E+00
  9.0988E+00
  9.5161E+00
  9.0988E+00
  9.0988E+00
  9.0988E+00
  9.5161E+00
  9.0988E+00
  8.6816E+00
  7.0179E+00
  7.2802E+00
  7.5426E+00
  7.2802E+00
  7.2802E+00
  7.2802E+00
  7.5426E+00
  7.2802E+00
  7.0179E+00
  5.0003E+00
  5.1267E+00
  5.2530E+00
  5.1267E+00
  5.1267E+00
  5.1267E+00
  5.2530E+00
  5.1267E+00
  5.0003E+00
  4.3863E+00
  4.5304E+00
  4.6745E+00
  4.5304E+00
  4.5304E+00
  4.5304E+00
  4.6745E+00
  4.5304E+00
  4.3863E+00
  5.5137E+00
  5.7337E+00
  5.9536E+00
  5.7337E+00
  5.7337E+00
  5.7337E+00
  5.9536E+00
  5.7337E+00
  5.5137E+00
  8.8865E+00
  9.2651E+00
  9.6437E+00
  9.2651E+00
  9.2651E+00
  9.2651E+00
  9.6437E+00
  9.2651E+00
  8.8865E+00
  8.0998E+00
  8.4101E+00
  8.7204E+00
  8.4101E+00
  8.4101E+00
  8.4101E+00
  8.7204E+00
  8.4101E+00
  8.0998E+00
  5.6305E+00
  5.8110E+00
  5.9915E+00
  5.8110E+00
  5.8110E+00
  5.8110E+00
  5.9915E+00
  5.8110E+00
  5.6305E+00
  5.4553E+00
  5.6445E+00
  5.8337E+00
  5.6445E+00
  5.6445E+00
  5.6445E+00
  5.8337E+00
  5.6445E+00
  5.4553E+00
   5.0174E-01
  7.5354E+00
  8.4011E+00
  9.2668E+00
  8.4011E+00
  8.4011E+00
  8.4011E+00
  9.2668E+00
  8.4011E+00
  7.5354E+00
  1.1632E+01
  1.3002E+01
  1.4371E+01
  1.3002E+01
  1.3002E+01
  1.3002E+01
  1.4371E+01
  1.3002E+01
  1.1632E+01
  1.3968E+01
  1.5410E+01
  1.6852E+01
  1.5410E+01
  1.5410E+01
  1.5410E+01
  1.6852E+01
  1.5410E+01
  1.3968E+01
  1.0681E+01
  1.1629E+01
  1.2577E+01
  1.1629E+01
  1.1629E+01
  1.1629E+01
  1.2577E+01
  1.1629E+01
  1.0681E+01
  8.5749E+00
  9.4912E+00
  1.0408E+01
  9.4912E+00
  9.4912E+00
  9.4912E+00
  1.0408E+01
  9.4912E+00
  8.5749E+00
  7.2106E+00
  7.9763E+00
  8.7420E+00
  7.9763E+00
  7.9763E+00
  7.9763E+00
  8.7420E+00
  7.9763E+00
  7.2106E+00
  1.0695E+01
  1.1967E+01
  1.3238E+01
  1.1967E+01
  1.1967E+01
  1.1967E+01
  1.3238E+01
  1.1967E+01
  1.0695E+01
  1.4018E+01
  1.5778E+01
  1.7538E+01
  1.5778E+01
  1.5778E+01
  1.5778E+01
  1.7538E+01
  1.5778E+01
  1.4018E+01
  1.0392E+01
  1.1435E+01
  1.2479E+01
  1.1435E+01
  1.1435E+01
  1.1435E+01
  1.2479E+01
  1.1435E+01
  1.0392E+01
  8.1172E+00
  8.7374E+00
  9.3576E+00
  8.7374E+00
  8.7374E+00
  8.7374E+00
  9.3576E+00
  8.7374E+00
  8.1172E+00
  7.0939E+00
  7.6973E+00
  8.3007E+00
  7.6973E+00
  7.6973E+00
  7.6973E+00
  8.3007E+00
  7.6973E+00
  7.0939E+00
  9.2894E+00
  1.0497E+01
  1.1705E+01
  1.0497E+01
  1.0497E+01
  1.0497E+01
  1.1705E+01
  1.0497E+01
  9.2894E+00
  1.3710E+01
  1.5688E+01
  1.7665E+01
  1.5688E+01
  1.5688E+01
  1.5688E+01
  1.7665E+01
  1.5688E+01
  1.3710E+01
  1.1323E+01
  1.2567E+01
  1.3811E+01
  1.2567E+01
  1.2567E+01
  1.2567E+01
  1.3811E+01
  1.2567E+01
  1.1323E+01
  8.3862E+00
  8.9570E+00
  9.5279E+00
  8.9570E+00
  8.9570E+00
  8.9570E+00
  9.5279E+00
  8.9570E+00
  8.3862E+00
  7.3354E+00
  7.9662E+00
  8.5969E+00
  7.9662E+00
  7.9662E+00
  7.9662E+00
  8.5969E+00
  7.9662E+00
  7.3354E+00
  8.9261E+00
  9.9444E+00
  1.0963E+01
  9.9444E+00
  9.9444E+00
  9.9444E+00
  1.0963E+01
  9.9444E+00
  8.9261E+00
  1.4204E+01
  1.5996E+01
  1.7788E+01
  1.5996E+01
  1.5996E+01
  1.5996E+01
  1.7788E+01
  1.5996E+01
  1.4204E+01
  1.3060E+01
  1.4529E+01
  1.5999E+01
  1.4529E+01
  1.4529E+01
  1.4529E+01
  1.5999E+01
  1.4529E+01
  1.3060E+01
  9.2394E+00
  1.0086E+01
  1.0932E+01
  1.0086E+01
  1.0086E+01
  1.0086E+01
  1.0932E+01
  1.0086E+01
  9.2394E+00
  8.9518E+00
  9.8304E+00
  1.0709E+01
  9.8304E+00
  9.8304E+00
  9.8304E+00
  1.0709E+01
  9.8304E+00
  8.9518E+00
   5.0174E-01
  1.7993E+01
  1.5085E+01
  1.2176E+01
  1.5085E+01
  1.5085E+01
  1.5085E+01
  1.2176E+01
  1.5085E+01
  1.7993E+01
  2.7957E+01
  2.3370E+01
  1.8783E+01
  2.3370E+01
  2.3370E+01
  2.3370E+01
  1.8783E+01
  2.3370E+01
  2.7957E+01
  3.2605E+01
  2.7784E+01
  2.2963E+01
  2.7784E+01
  2.7784E+01
  2.7784E+01
  2.2963E+01
  2.7784E+01
  3.2605E+01
  2.4203E+01
  2.1020E+01
  1.7837E+01
  2.1020E+01
  2.1020E+01
  2.1020E+01
  1.7837E+01
  2.1020E+01
  2.4203E+01
  2.0301E+01
  1.7171E+01
  1.4041E+01
  1.7171E+01
  1.7171E+01
  1.7171E+01
  1.4041E+01
  1.7171E+01
  2.0301E+01
  1.7020E+01
  1.4398E+01
  1.1777E+01
  1.4398E+01
  1.4398E+01
  1.4398E+01
  1.1777E+01
  1.4398E+01
  1.7020E+01
  2.5738E+01
  2.1469E+01
  1.7199E+01
  2.1469E+01
  2.1469E+01
  2.1469E+01
  1.7199E+01
  2.1469E+01
  2.5738E+01
  3.4228E+01
  2.8330E+01
  2.2431E+01
  2.8330E+01
  2.8330E+01
  2.8330E+01
  2.2431E+01
  2.8330E+01
  3.4228E+01
  2.4113E+01
  2.0608E+01
  1.7103E+01
  2.0608E+01
  2.0608E+01
  2.0608E+01
  1.7103E+01
  2.0608E+01
  2.4113E+01
  1.8125E+01
  1.6036E+01
  1.3946E+01
  1.6036E+01
  1.6036E+01
  1.6036E+01
  1.3946E+01
  1.6036E+01
  1.8125E+01
  1.6244E+01
  1.4194E+01
  1.2143E+01
  1.4194E+01
  1.4194E+01
  1.4194E+01
  1.2143E+01
  1.4194E+01
  1.6244E+01
  2.2954E+01
  1.8863E+01
  1.4771E+01
  1.8863E+01
  1.8863E+01
  1.8863E+01
  1.4771E+01
  1.8863E+01
  2.2954E+01
  3.4702E+01
  2.8048E+01
  2.1393E+01
  2.8048E+01
  2.8048E+01
  2.8048E+01
  2.1393E+01
  2.8048E+01
  3.4702E+01
  2.6736E+01
  2.2545E+01
  1.8355E+01
  2.2545E+01
  2.2545E+01
  2.2545E+01
  1.8355E+01
  2.2545E+01
  2.6736E+01
  1.8286E+01
  1.6412E+01
  1.4538E+01
  1.6412E+01
  1.6412E+01
  1.6412E+01
  1.4538E+01
  1.6412E+01
  1.8286E+01
  1.6764E+01
  1.4780E+01
  1.2796E+01
  1.4780E+01
  1.4780E+01
  1.4780E+01
  1.2796E+01
  1.4780E+01
  1.6764E+01
  2.1368E+01
  1.8033E+01
  1.4698E+01
  1.8033E+01
  1.8033E+01
  1.8033E+01
  1.4698E+01
  1.8033E+01
  2.1368E+01
  3.4726E+01
  2.8721E+01
  2.2717E+01
  2.8721E+01
  2.8721E+01
  2.8721E+01
  2.2717E+01
  2.8721E+01
  3.4726E+01
  3.1061E+01
  2.6136E+01
  2.1210E+01
  2.6136E+01
  2.6136E+01
  2.6136E+01
  2.1210E+01
  2.6136E+01
  3.1061E+01
  2.1136E+01
  1.8335E+01
  1.5534E+01
  1.8335E+01
  1.8335E+01
  1.8335E+01
  1.5534E+01
  1.8335E+01
  2.1136E+01
  2.0868E+01
  1.8000E+01
  1.5132E+01
  1.8000E+01
  1.8000E+01
  1.8000E+01
  1.5132E+01
  1.8000E+01
  2.0868E+01
   5.0174E-01
  2.5105E+01
  3.3004E+01
  4.0902E+01
  3.3004E+01
  3.3004E+01
  3.3004E+01
  4.0902E+01
  3.3004E+01
  2.5105E+01
  3.8754E+01
  5.1178E+01
  6.3602E+01
  5.1178E+01
  5.1178E+01
  5.1178E+01
  6.3602E+01
  5.1178E+01
  3.8754E+01
  4.7936E+01
  6.0980E+01
  7.4025E+01
  6.0980E+01
  6.0980E+01
  6.0980E+01
  7.4025E+01
  6.0980E+01
  4.7936E+01
  3.7504E+01
  4.6171E+01
  5.4839E+01
  4.6171E+01
  4.6171E+01
  4.6171E+01
  5.4839E+01
  4.6171E+01
  3.7504E+01
  2.9018E+01
  3.7641E+01
  4.6264E+01
  3.7641E+01
  3.7641E+01
  3.7641E+01
  4.6264E+01
  3.7641E+01
  2.9018E+01
  2.4301E+01
  3.1521E+01
  3.8741E+01
  3.1521E+01
  3.1521E+01
  3.1521E+01
  3.8741E+01
  3.1521E+01
  2.4301E+01
  3.5342E+01
  4.6936E+01
  5.8530E+01
  4.6936E+01
  4.6936E+01
  4.6936E+01
  5.8530E+01
  4.6936E+01
  3.5342E+01
  4.5993E+01
  6.1983E+01
  7.7974E+01
  6.1983E+01
  6.1983E+01
  6.1983E+01
  7.7974E+01
  6.1983E+01
  4.5993E+01
  3.5673E+01
  4.5198E+01
  5.4723E+01
  4.5198E+01
  4.5198E+01
  4.5198E+01
  5.4723E+01
  4.5198E+01
  3.5673E+01
  2.9817E+01
  3.5500E+01
  4.1183E+01
  3.5500E+01
  3.5500E+01
  3.5500E+01
  4.1183E+01
  3.5500E+01
  2.9817E+01
  2.5879E+01
  3.1472E+01
  3.7064E+01
  3.1472E+01
  3.1472E+01
  3.1472E+01
  3.7064E+01
  3.1472E+01
  2.5879E+01
  3.0048E+01
  4.1222E+01
  5.2396E+01
  4.1222E+01
  4.1222E+01
  4.1222E+01
  5.2396E+01
  4.1222E+01
  3.0048E+01
  4.3042E+01
  6.1146E+01
  7.9249E+01
  6.1146E+01
  6.1146E+01
  6.1146E+01
  7.9249E+01
  6.1146E+01
  4.3042E+01
  3.7860E+01
  4.9276E+01
  6.0692E+01
  4.9276E+01
  4.9276E+01
  4.9276E+01
  6.0692E+01
  4.9276E+01
  3.7860E+01
  3.1184E+01
  3.6278E+01
  4.1372E+01
  3.6278E+01
  3.6278E+01
  3.6278E+01
  4.1372E+01
  3.6278E+01
  3.1184E+01
  2.7577E+01
  3.2881E+01
  3.8185E+01
  3.2881E+01
  3.2881E+01
  3.2881E+01
  3.8185E+01
  3.2881E+01
  2.7577E+01
  3.0682E+01
  3.9666E+01
  4.8650E+01
  3.9666E+01
  3.9666E+01
  3.9666E+01
  4.8650E+01
  3.9666E+01
  3.0682E+01
  4.6577E+01
  6.2845E+01
  7.9114E+01
  6.2845E+01
  6.2845E+01
  6.2845E+01
  7.9114E+01
  6.2845E+01
  4.6577E+01
  4.3911E+01
  5.7262E+01
  7.0614E+01
  5.7262E+01
  5.7262E+01
  5.7262E+01
  7.0614E+01
  5.7262E+01
  4.3911E+01
  3.2820E+01
  4.0403E+01
  4.7986E+01
  4.0403E+01
  4.0403E+01
  4.0403E+01
  4.7986E+01
  4.0403E+01
  3.2820E+01
  3.2061E+01
  3.9799E+01
  4.7537E+01
  3.9799E+01
  3.9799E+01
  3.9799E+01
  4.7537E+01
  3.9799E+01
  3.2061E+01
   5.0355E-01
  6.2979E-02
  6.2979E-02
  6.2979E-02
  6.2979E-02
  6.2979E-02
  6.2979E-02
  6.2979E-02
  6.2979E-02
  6.2979E-02
  1.1114E-01
  1.1114E-01
  1.1114E-01
  1.1114E-01
  1.1114E-01
  1.1114E-01
  1.1114E-01
  1.1114E-01
  1.1114E-01
  1.9302E-01
  1.9302E-01
  1.9302E-01
  1.9302E-01
  1.9302E-01
  1.9302E-01
  1.9302E-01
  1.9302E-01
  1.9302E-01
  2.4995E-01
  2.4995E-01
  2.4995E-01
  2.4995E-01
  2.4995E-01
  2.4995E-01
  2.4995E-01
  2.4995E-01
  2.4995E-01
  3.0241E-01
  3.0241E-01
  3.0241E-01
  3.0241E-01
  3.0241E-01
  3.0241E-01
  3.0241E-01
  3.0241E-01
  3.0241E-01
  3.5356E-01
  3.5356E-01
  3.5356E-01
  3.5356E-01
  3.5356E-01
  3.5356E-01
  3.5356E-01
  3.5356E-01
  3.5356E-01
  3.7503E-01
  3.7503E-01
  3.7503E-01
  3.7503E-01
  3.7503E-01
  3.7503E-01
  3.7503E-01
  3.7503E-01
  3.7503E-01
  3.6311E-01
  3.6311E-01
  3.6311E-01
  3.6311E-01
  3.6311E-01
  3.6311E-01
  3.6311E-01
  3.6311E-01
  3.6311E-01
  3.4406E-01
  3.4406E-01
  3.4406E-01
  3.4406E-01
  3.4406E-01
  3.4406E-01
  3.4406E-01
  3.4406E-01
  3.4406E-01
  3.1845E-01
  3.1845E-01
  3.1845E-01
  3.1845E-01
  3.1845E-01
  3.1845E-01
  3.1845E-01
  3.1845E-01
  3.1845E-01
  2.6219E-01
  2.6219E-01
  2.6219E-01
  2.6219E-01
  2.6219E-01
  2.6219E-01
  2.6219E-01
  2.6219E-01
  2.6219E-01
  1.8262E-01
  1.8262E-01
  1.8262E-01
  1.8262E-01
  1.8262E-01
  1.8262E-01
  1.8262E-01
  1.8262E-01
  1.8262E-01
  1.1274E-01
  1.1274E-01
  1.1274E-01
  1.1274E-01
  1.1274E-01
  1.1274E-01
  1.1274E-01
  1.1274E-01
  1.1274E-01
  6.5055E-02
  6.5055E-02
  6.5055E-02
  6.5055E-02
  6.5055E-02
  6.5055E-02
  6.5055E-02
  6.5055E-02
  6.5055E-02
  7.8886E-02
  7.8886E-02
  7.8886E-02
  7.8886E-02
  7.8886E-02
  7.8886E-02
  7.8886E-02
  7.8886E-02
  7.8886E-02
  1.5637E-01
  1.5637E-01
  1.5637E-01
  1.5637E-01
  1.5637E-01
  1.5637E-01
  1.5637E-01
  1.5637E-01
  1.5637E-01
  2.2792E-01
  2.2792E-01
  2.2792E-01
  2.2792E-01
  2.2792E-01
  2.2792E-01
  2.2792E-01
  2.2792E-01
  2.2792E-01
  2.7701E-01
  2.7701E-01
  2.7701E-01
  2.7701E-01
  2.7701E-01
  2.7701E-01
  2.7701E-01
  2.7701E-01
  2.7701E-01
  3.2577E-01
  3.2577E-01
  3.2577E-01
  3.2577E-01
  3.2577E-01
  3.2577E-01
  3.2577E-01
  3.2577E-01
  3.2577E-01
  3.6465E-01
  3.6465E-01
  3.6465E-01
  3.6465E-01
  3.6465E-01
  3.6465E-01
  3.6465E-01
  3.6465E-01
  3.6465E-01
  3.7682E-01
  3.7682E-01
  3.7682E-01
  3.7682E-01
  3.7682E-01
  3.7682E-01
  3.7682E-01
  3.7682E-01
  3.7682E-01
   5.0355E-01
  7.5219E+00
  7.5219E+00
  7.5219E+00
  7.5219E+00
  7.5219E+00
  7.5219E+00
  7.5219E+00
  7.5219E+00
  7.5219E+00
  1.3275E+01
  1.3275E+01
  1.3275E+01
  1.3275E+01
  1.3275E+01
  1.3275E+01
  1.3275E+01
  1.3275E+01
  1.3275E+01
  2.3053E+01
  2.3053E+01
  2.3053E+01
  2.3053E+01
  2.3053E+01
  2.3053E+01
  2.3053E+01
  2.3053E+01
  2.3053E+01
  2.9854E+01
  2.9854E+01
  2.9854E+01
  2.9854E+01
  2.9854E+01
  2.9854E+01
  2.9854E+01
  2.9854E+01
  2.9854E+01
  3.6118E+01
  3.6118E+01
  3.6118E+01
  3.6118E+01
  3.6118E+01
  3.6118E+01
  3.6118E+01
  3.6118E+01
  3.6118E+01
  4.2228E+01
  4.2228E+01
  4.2228E+01
  4.2228E+01
  4.2228E+01
  4.2228E+01
  4.2228E+01
  4.2228E+01
  4.2228E+01
  4.4792E+01
  4.4792E+01
  4.4792E+01
  4.4792E+01
  4.4792E+01
  4.4792E+01
  4.4792E+01
  4.4792E+01
  4.4792E+01
  4.3368E+01
  4.3368E+01
  4.3368E+01
  4.3368E+01
  4.3368E+01
  4.3368E+01
  4.3368E+01
  4.3368E+01
  4.3368E+01
  4.1093E+01
  4.1093E+01
  4.1093E+01
  4.1093E+01
  4.1093E+01
  4.1093E+01
  4.1093E+01
  4.1093E+01
  4.1093E+01
  3.8034E+01
  3.8034E+01
  3.8034E+01
  3.8034E+01
  3.8034E+01
  3.8034E+01
  3.8034E+01
  3.8034E+01
  3.8034E+01
  3.1315E+01
  3.1315E+01
  3.1315E+01
  3.1315E+01
  3.1315E+01
  3.1315E+01
  3.1315E+01
  3.1315E+01
  3.1315E+01
  2.1811E+01
  2.1811E+01
  2.1811E+01
  2.1811E+01
  2.1811E+01
  2.1811E+01
  2.1811E+01
  2.1811E+01
  2.1811E+01
  1.3466E+01
  1.3466E+01
  1.3466E+01
  1.3466E+01
  1.3466E+01
  1.3466E+01
  1.3466E+01
  1.3466E+01
  1.3466E+01
  7.7699E+00
  7.7699E+00
  7.7699E+00
  7.7699E+00
  7.7699E+00
  7.7699E+00
  7.7699E+00
  7.7699E+00
  7.7699E+00
  9.4218E+00
  9.4218E+00
  9.4218E+00
  9.4218E+00
  9.4218E+00
  9.4218E+00
  9.4218E+00
  9.4218E+00
  9.4218E+00
  1.8676E+01
  1.8676E+01
  1.8676E+01
  1.8676E+01
  1.8676E+01
  1.8676E+01
  1.8676E+01
  1.8676E+01
  1.8676E+01
  2.7222E+01
  2.7222E+01
  2.7222E+01
  2.7222E+01
  2.7222E+01
  2.7222E+01
  2.7222E+01
  2.7222E+01
  2.7222E+01
  3.3085E+01
  3.3085E+01
  3.3085E+01
  3.3085E+01
  3.3085E+01
  3.3085E+01
  3.3085E+01
  3.3085E+01
  3.3085E+01
  3.8909E+01
  3.8909E+01
  3.8909E+01
  3.8909E+01
  3.8909E+01
  3.8909E+01
  3.8909E+01
  3.8909E+01
  3.8909E+01
  4.3552E+01
  4.3552E+01
  4.3552E+01
  4.3552E+01
  4.3552E+01
  4.3552E+01
  4.3552E+01
  4.3552E+01
  4.3552E+01
  4.5006E+01
  4.5006E+01
  4.5006E+01
  4.5006E+01
  4.5006E+01
  4.5006E+01
  4.5006E+01
  4.5006E+01
  4.5006E+01
   5.0355E-01
  5.5084E+00
  5.5084E+00
  5.5084E+00
  5.5084E+00
  5.5084E+00
  5.5084E+00
  5.5084E+00
  5.5084E+00
  5.5084E+00
  9.7211E+00
  9.7211E+00
  9.7211E+00
  9.7211E+00
  9.7211E+00
  9.7211E+00
  9.7211E+00
  9.7211E+00
  9.7211E+00
  1.6882E+01
  1.6882E+01
  1.6882E+01
  1.6882E+01
  1.6882E+01
  1.6882E+01
  1.6882E+01
  1.6882E+01
  1.6882E+01
  2.1862E+01
  2.1862E+01
  2.1862E+01
  2.1862E+01
  2.1862E+01
  2.1862E+01
  2.1862E+01
  2.1862E+01
  2.1862E+01
  2.6450E+01
  2.6450E+01
  2.6450E+01
  2.6450E+01
  2.6450E+01
  2.6450E+01
  2.6450E+01
  2.6450E+01
  2.6450E+01
  3.0924E+01
  3.0924E+01
  3.0924E+01
  3.0924E+01
  3.0924E+01
  3.0924E+01
  3.0924E+01
  3.0924E+01
  3.0924E+01
  3.2802E+01
  3.2802E+01
  3.2802E+01
  3.2802E+01
  3.2802E+01
  3.2802E+01
  3.2802E+01
  3.2802E+01
  3.2802E+01
  3.1759E+01
  3.1759E+01
  3.1759E+01
  3.1759E+01
  3.1759E+01
  3.1759E+01
  3.1759E+01
  3.1759E+01
  3.1759E+01
  3.0093E+01
  3.0093E+01
  3.0093E+01
  3.0093E+01
  3.0093E+01
  3.0093E+01
  3.0093E+01
  3.0093E+01
  3.0093E+01
  2.7853E+01
  2.7853E+01
  2.7853E+01
  2.7853E+01
  2.7853E+01
  2.7853E+01
  2.7853E+01
  2.7853E+01
  2.7853E+01
  2.2932E+01
  2.2932E+01
  2.2932E+01
  2.2932E+01
  2.2932E+01
  2.2932E+01
  2.2932E+01
  2.2932E+01
  2.2932E+01
  1.5973E+01
  1.5973E+01
  1.5973E+01
  1.5973E+01
  1.5973E+01
  1.5973E+01
  1.5973E+01
  1.5973E+01
  1.5973E+01
  9.8611E+00
  9.8611E+00
  9.8611E+00
  9.8611E+00
  9.8611E+00
  9.8611E+00
  9.8611E+00
  9.8611E+00
  9.8611E+00
  5.6900E+00
  5.6900E+00
  5.6900E+00
  5.6900E+00
  5.6900E+00
  5.6900E+00
  5.6900E+00
  5.6900E+00
  5.6900E+00
  6.8997E+00
  6.8997E+00
  6.8997E+00
  6.8997E+00
  6.8997E+00
  6.8997E+00
  6.8997E+00
  6.8997E+00
  6.8997E+00
  1.3677E+01
  1.3677E+01
  1.3677E+01
  1.3677E+01
  1.3677E+01
  1.3677E+01
  1.3677E+01
  1.3677E+01
  1.3677E+01
  1.9935E+01
  1.9935E+01
  1.9935E+01
  1.9935E+01
  1.9935E+01
  1.9935E+01
  1.9935E+01
  1.9935E+01
  1.9935E+01
  2.4229E+01
  2.4229E+01
  2.4229E+01
  2.4229E+01
  2.4229E+01
  2.4229E+01
  2.4229E+01
  2.4229E+01
  2.4229E+01
  2.8493E+01
  2.8493E+01
  2.8493E+01
  2.8493E+01
  2.8493E+01
  2.8493E+01
  2.8493E+01
  2.8493E+01
  2.8493E+01
  3.1894E+01
  3.1894E+01
  3.1894E+01
  3.1894E+01
  3.1894E+01
  3.1894E+01
  3.1894E+01
  3.1894E+01
  3.1894E+01
  3.2958E+01
  3.2958E+01
  3.2958E+01
  3.2958E+01
  3.2958E+01
  3.2958E+01
  3.2958E+01
  3.2958E+01
  3.2958E+01
   5.0355E-01
  2.1768E+01
  2.1768E+01
  2.1768E+01
  2.1768E+01
  2.1768E+01
  2.1768E+01
  2.1768E+01
  2.1768E+01
  2.1768E+01
  3.8415E+01
  3.8415E+01
  3.8415E+01
  3.8415E+01
  3.8415E+01
  3.8415E+01
  3.8415E+01
  3.8415E+01
  3.8415E+01
  6.6714E+01
  6.6714E+01
  6.6714E+01
  6.6714E+01
  6.6714E+01
  6.6714E+01
  6.6714E+01
  6.6714E+01
  6.6714E+01
  8.6394E+01
  8.6394E+01
  8.6394E+01
  8.6394E+01
  8.6394E+01
  8.6394E+01
  8.6394E+01
  8.6394E+01
  8.6394E+01
  1.0452E+02
  1.0452E+02
  1.0452E+02
  1.0452E+02
  1.0452E+02
  1.0452E+02
  1.0452E+02
  1.0452E+02
  1.0452E+02
  1.2221E+02
  1.2221E+02
  1.2221E+02
  1.2221E+02
  1.2221E+02
  1.2221E+02
  1.2221E+02
  1.2221E+02
  1.2221E+02
  1.2962E+02
  1.2962E+02
  1.2962E+02
  1.2962E+02
  1.2962E+02
  1.2962E+02
  1.2962E+02
  1.2962E+02
  1.2962E+02
  1.2550E+02
  1.2550E+02
  1.2550E+02
  1.2550E+02
  1.2550E+02
  1.2550E+02
  1.2550E+02
  1.2550E+02
  1.2550E+02
  1.1892E+02
  1.1892E+02
  1.1892E+02
  1.1892E+02
  1.1892E+02
  1.1892E+02
  1.1892E+02
  1.1892E+02
  1.1892E+02
  1.1007E+02
  1.1007E+02
  1.1007E+02
  1.1007E+02
  1.1007E+02
  1.1007E+02
  1.1007E+02
  1.1007E+02
  1.1007E+02
  9.0622E+01
  9.0622E+01
  9.0622E+01
  9.0622E+01
  9.0622E+01
  9.0622E+01
  9.0622E+01
  9.0622E+01
  9.0622E+01
  6.3121E+01
  6.3121E+01
  6.3121E+01
  6.3121E+01
  6.3121E+01
  6.3121E+01
  6.3121E+01
  6.3121E+01
  6.3121E+01
  3.8969E+01
  3.8969E+01
  3.8969E+01
  3.8969E+01
  3.8969E+01
  3.8969E+01
  3.8969E+01
  3.8969E+01
  3.8969E+01
  2.2486E+01
  2.2486E+01
  2.2486E+01
  2.2486E+01
  2.2486E+01
  2.2486E+01
  2.2486E+01
  2.2486E+01
  2.2486E+01
  2.7266E+01
  2.7266E+01
  2.7266E+01
  2.7266E+01
  2.7266E+01
  2.7266E+01
  2.7266E+01
  2.7266E+01
  2.7266E+01
  5.4046E+01
  5.4046E+01
  5.4046E+01
  5.4046E+01
  5.4046E+01
  5.4046E+01
  5.4046E+01
  5.4046E+01
  5.4046E+01
  7.8777E+01
  7.8777E+01
  7.8777E+01
  7.8777E+01
  7.8777E+01
  7.8777E+01
  7.8777E+01
  7.8777E+01
  7.8777E+01
  9.5746E+01
  9.5746E+01
  9.5746E+01
  9.5746E+01
  9.5746E+01
  9.5746E+01
  9.5746E+01
  9.5746E+01
  9.5746E+01
  1.1260E+02
  1.1260E+02
  1.1260E+02
  1.1260E+02
  1.1260E+02
  1.1260E+02
  1.1260E+02
  1.1260E+02
  1.1260E+02
  1.2604E+02
  1.2604E+02
  1.2604E+02
  1.2604E+02
  1.2604E+02
  1.2604E+02
  1.2604E+02
  1.2604E+02
  1.2604E+02
  1.3024E+02
  1.3024E+02
  1.3024E+02
  1.3024E+02
  1.3024E+02
  1.3024E+02
  1.3024E+02
  1.3024E+02
  1.3024E+02
