Scalar VONMISES under Modal for nodeset
189
   4.9576E-01
  2.1027E+01
  2.1027E+01
  2.1027E+01
  2.1027E+01
  2.1027E+01
  2.1027E+01
  2.1027E+01
  2.1027E+01
  2.1027E+01
  2.9359E+01
  2.9359E+01
  2.9359E+01
  2.9359E+01
  2.9359E+01
  2.9359E+01
  2.9359E+01
  2.9359E+01
  2.9359E+01
  5.0657E+01
  5.0657E+01
  5.0657E+01
  5.0657E+01
  5.0657E+01
  5.0657E+01
  5.0657E+01
  5.0657E+01
  5.0657E+01
  7.8675E+01
  7.8675E+01
  7.8675E+01
  7.8675E+01
  7.8675E+01
  7.8675E+01
  7.8675E+01
  7.8675E+01
  7.8675E+01
  1.0336E+02
  1.0336E+02
  1.0336E+02
  1.0336E+02
  1.0336E+02
  1.0336E+02
  1.0336E+02
  1.0336E+02
  1.0336E+02
  1.1409E+02
  1.1409E+02
  1.1409E+02
  1.1409E+02
  1.1409E+02
  1.1409E+02
  1.1409E+02
  1.1409E+02
  1.1409E+02
  1.0849E+02
  1.0849E+02
  1.0849E+02
  1.0849E+02
  1.0849E+02
  1.0849E+02
  1.0849E+02
  1.0849E+02
  1.0849E+02
  8.9597E+01
  8.9597E+01
  8.9597E+01
  8.9597E+01
  8.9597E+01
  8.9597E+01
  8.9597E+01
  8.9597E+01
  8.9597E+01
  6.4310E+01
  6.4310E+01
  6.4310E+01
  6.4310E+01
  6.4310E+01
  6.4310E+01
  6.4310E+01
  6.4310E+01
  6.4310E+01
  4.5643E+01
  4.5643E+01
  4.5643E+01
  4.5643E+01
  4.5643E+01
  4.5643E+01
  4.5643E+01
  4.5643E+01
  4.5643E+01
  4.5972E+01
  4.5972E+01
  4.5972E+01
  4.5972E+01
  4.5972E+01
  4.5972E+01
  4.5972E+01
  4.5972E+01
  4.5972E+01
  6.3619E+01
  6.3619E+01
  6.3619E+01
  6.3619E+01
  6.3619E+01
  6.3619E+01
  6.3619E+01
  6.3619E+01
  6.3619E+01
  8.5748E+01
  8.5748E+01
  8.5748E+01
  8.5748E+01
  8.5748E+01
  8.5748E+01
  8.5748E+01
  8.5748E+01
  8.5748E+01
  1.0307E+02
  1.0307E+02
  1.0307E+02
  1.0307E+02
  1.0307E+02
  1.0307E+02
  1.0307E+02
  1.0307E+02
  1.0307E+02
  1.1177E+02
  1.1177E+02
  1.1177E+02
  1.1177E+02
  1.1177E+02
  1.1177E+02
  1.1177E+02
  1.1177E+02
  1.1177E+02
  1.0673E+02
  1.0673E+02
  1.0673E+02
  1.0673E+02
  1.0673E+02
  1.0673E+02
  1.0673E+02
  1.0673E+02
  1.0673E+02
  8.8183E+01
  8.8183E+01
  8.8183E+01
  8.8183E+01
  8.8183E+01
  8.8183E+01
  8.8183E+01
  8.8183E+01
  8.8183E+01
  5.7491E+01
  5.7491E+01
  5.7491E+01
  5.7491E+01
  5.7491E+01
  5.7491E+01
  5.7491E+01
  5.7491E+01
  5.7491E+01
  2.7821E+01
  2.7821E+01
  2.7821E+01
  2.7821E+01
  2.7821E+01
  2.7821E+01
  2.7821E+01
  2.7821E+01
  2.7821E+01
  2.1121E+01
  2.1121E+01
  2.1121E+01
  2.1121E+01
  2.1121E+01
  2.1121E+01
  2.1121E+01
  2.1121E+01
  2.1121E+01
  2.5115E+01
  2.5115E+01
  2.5115E+01
  2.5115E+01
  2.5115E+01
  2.5115E+01
  2.5115E+01
  2.5115E+01
  2.5115E+01
   4.9754E-01
  3.4787E+01
  3.4787E+01
  3.4787E+01
  3.4787E+01
  3.4787E+01
  3.4787E+01
  3.4787E+01
  3.4787E+01
  3.4787E+01
  5.2259E+01
  5.2259E+01
  5.2259E+01
  5.2259E+01
  5.2259E+01
  5.2259E+01
  5.2259E+01
  5.2259E+01
  5.2259E+01
  8.4763E+01
  8.4763E+01
  8.4763E+01
  8.4763E+01
  8.4763E+01
  8.4763E+01
  8.4763E+01
  8.4763E+01
  8.4763E+01
  1.0589E+02
  1.0589E+02
  1.0589E+02
  1.0589E+02
  1.0589E+02
  1.0589E+02
  1.0589E+02
  1.0589E+02
  1.0589E+02
  1.0579E+02
  1.0579E+02
  1.0579E+02
  1.0579E+02
  1.0579E+02
  1.0579E+02
  1.0579E+02
  1.0579E+02
  1.0579E+02
  8.3985E+01
  8.3985E+01
  8.3985E+01
  8.3985E+01
  8.3985E+01
  8.3985E+01
  8.3985E+01
  8.3985E+01
  8.3985E+01
  5.8714E+01
  5.8714E+01
  5.8714E+01
  5.8714E+01
  5.8714E+01
  5.8714E+01
  5.8714E+01
  5.8714E+01
  5.8714E+01
  5.6573E+01
  5.6573E+01
  5.6573E+01
  5.6573E+01
  5.6573E+01
  5.6573E+01
  5.6573E+01
  5.6573E+01
  5.6573E+01
  7.9929E+01
  7.9929E+01
  7.9929E+01
  7.9929E+01
  7.9929E+01
  7.9929E+01
  7.9929E+01
  7.9929E+01
  7.9929E+01
  1.0343E+02
  1.0343E+02
  1.0343E+02
  1.0343E+02
  1.0343E+02
  1.0343E+02
  1.0343E+02
  1.0343E+02
  1.0343E+02
  1.0620E+02
  1.0620E+02
  1.0620E+02
  1.0620E+02
  1.0620E+02
  1.0620E+02
  1.0620E+02
  1.0620E+02
  1.0620E+02
  8.6161E+01
  8.6161E+01
  8.6161E+01
  8.6161E+01
  8.6161E+01
  8.6161E+01
  8.6161E+01
  8.6161E+01
  8.6161E+01
  6.0116E+01
  6.0116E+01
  6.0116E+01
  6.0116E+01
  6.0116E+01
  6.0116E+01
  6.0116E+01
  6.0116E+01
  6.0116E+01
  5.5571E+01
  5.5571E+01
  5.5571E+01
  5.5571E+01
  5.5571E+01
  5.5571E+01
  5.5571E+01
  5.5571E+01
  5.5571E+01
  7.7762E+01
  7.7762E+01
  7.7762E+01
  7.7762E+01
  7.7762E+01
  7.7762E+01
  7.7762E+01
  7.7762E+01
  7.7762E+01
  1.0234E+02
  1.0234E+02
  1.0234E+02
  1.0234E+02
  1.0234E+02
  1.0234E+02
  1.0234E+02
  1.0234E+02
  1.0234E+02
  1.0747E+02
  1.0747E+02
  1.0747E+02
  1.0747E+02
  1.0747E+02
  1.0747E+02
  1.0747E+02
  1.0747E+02
  1.0747E+02
  8.9856E+01
  8.9856E+01
  8.9856E+01
  8.9856E+01
  8.9856E+01
  8.9856E+01
  8.9856E+01
  8.9856E+01
  8.9856E+01
  6.0197E+01
  6.0197E+01
  6.0197E+01
  6.0197E+01
  6.0197E+01
  6.0197E+01
  6.0197E+01
  6.0197E+01
  6.0197E+01
  3.4717E+01
  3.4717E+01
  3.4717E+01
  3.4717E+01
  3.4717E+01
  3.4717E+01
  3.4717E+01
  3.4717E+01
  3.4717E+01
  2.4894E+01
  2.4894E+01
  2.4894E+01
  2.4894E+01
  2.4894E+01
  2.4894E+01
  2.4894E+01
  2.4894E+01
  2.4894E+01
   4.9937E-01
  4.2006E+01
  4.2006E+01
  4.2006E+01
  4.2006E+01
  4.2006E+01
  4.2006E+01
  4.2006E+01
  4.2006E+01
  4.2006E+01
  5.5430E+01
  5.5430E+01
  5.5430E+01
  5.5430E+01
  5.5430E+01
  5.5430E+01
  5.5430E+01
  5.5430E+01
  5.5430E+01
  6.4544E+01
  6.4544E+01
  6.4544E+01
  6.4544E+01
  6.4544E+01
  6.4544E+01
  6.4544E+01
  6.4544E+01
  6.4544E+01
  4.9930E+01
  4.9930E+01
  4.9930E+01
  4.9930E+01
  4.9930E+01
  4.9930E+01
  4.9930E+01
  4.9930E+01
  4.9930E+01
  4.3175E+01
  4.3175E+01
  4.3175E+01
  4.3175E+01
  4.3175E+01
  4.3175E+01
  4.3175E+01
  4.3175E+01
  4.3175E+01
  4.4756E+01
  4.4756E+01
  4.4756E+01
  4.4756E+01
  4.4756E+01
  4.4756E+01
  4.4756E+01
  4.4756E+01
  4.4756E+01
  4.3590E+01
  4.3590E+01
  4.3590E+01
  4.3590E+01
  4.3590E+01
  4.3590E+01
  4.3590E+01
  4.3590E+01
  4.3590E+01
  5.5050E+01
  5.5050E+01
  5.5050E+01
  5.5050E+01
  5.5050E+01
  5.5050E+01
  5.5050E+01
  5.5050E+01
  5.5050E+01
  6.6113E+01
  6.6113E+01
  6.6113E+01
  6.6113E+01
  6.6113E+01
  6.6113E+01
  6.6113E+01
  6.6113E+01
  6.6113E+01
  5.4556E+01
  5.4556E+01
  5.4556E+01
  5.4556E+01
  5.4556E+01
  5.4556E+01
  5.4556E+01
  5.4556E+01
  5.4556E+01
  5.0895E+01
  5.0895E+01
  5.0895E+01
  5.0895E+01
  5.0895E+01
  5.0895E+01
  5.0895E+01
  5.0895E+01
  5.0895E+01
  6.4960E+01
  6.4960E+01
  6.4960E+01
  6.4960E+01
  6.4960E+01
  6.4960E+01
  6.4960E+01
  6.4960E+01
  6.4960E+01
  6.3208E+01
  6.3208E+01
  6.3208E+01
  6.3208E+01
  6.3208E+01
  6.3208E+01
  6.3208E+01
  6.3208E+01
  6.3208E+01
  4.8000E+01
  4.8000E+01
  4.8000E+01
  4.8000E+01
  4.8000E+01
  4.8000E+01
  4.8000E+01
  4.8000E+01
  4.8000E+01
  4.5087E+01
  4.5087E+01
  4.5087E+01
  4.5087E+01
  4.5087E+01
  4.5087E+01
  4.5087E+01
  4.5087E+01
  4.5087E+01
  4.6855E+01
  4.6855E+01
  4.6855E+01
  4.6855E+01
  4.6855E+01
  4.6855E+01
  4.6855E+01
  4.6855E+01
  4.6855E+01
  4.8397E+01
  4.8397E+01
  4.8397E+01
  4.8397E+01
  4.8397E+01
  4.8397E+01
  4.8397E+01
  4.8397E+01
  4.8397E+01
  5.9302E+01
  5.9302E+01
  5.9302E+01
  5.9302E+01
  5.9302E+01
  5.9302E+01
  5.9302E+01
  5.9302E+01
  5.9302E+01
  6.2816E+01
  6.2816E+01
  6.2816E+01
  6.2816E+01
  6.2816E+01
  6.2816E+01
  6.2816E+01
  6.2816E+01
  6.2816E+01
  6.4747E+01
  6.4747E+01
  6.4747E+01
  6.4747E+01
  6.4747E+01
  6.4747E+01
  6.4747E+01
  6.4747E+01
  6.4747E+01
  6.9517E+01
  6.9517E+01
  6.9517E+01
  6.9517E+01
  6.9517E+01
  6.9517E+01
  6.9517E+01
  6.9517E+01
  6.9517E+01
   5.0054E-01
  4.5031E+01
  4.5031E+01
  4.5031E+01
  4.5031E+01
  4.5031E+01
  4.5031E+01
  4.5031E+01
  4.5031E+01
  4.5031E+01
  6.2934E+01
  6.2934E+01
  6.2934E+01
  6.2934E+01
  6.2934E+01
  6.2934E+01
  6.2934E+01
  6.2934E+01
  6.2934E+01
  9.2935E+01
  9.2935E+01
  9.2935E+01
  9.2935E+01
  9.2935E+01
  9.2935E+01
  9.2935E+01
  9.2935E+01
  9.2935E+01
  1.0037E+02
  1.0037E+02
  1.0037E+02
  1.0037E+02
  1.0037E+02
  1.0037E+02
  1.0037E+02
  1.0037E+02
  1.0037E+02
  7.9635E+01
  7.9635E+01
  7.9635E+01
  7.9635E+01
  7.9635E+01
  7.9635E+01
  7.9635E+01
  7.9635E+01
  7.9635E+01
  6.4016E+01
  6.4016E+01
  6.4016E+01
  6.4016E+01
  6.4016E+01
  6.4016E+01
  6.4016E+01
  6.4016E+01
  6.4016E+01
  7.8275E+01
  7.8275E+01
  7.8275E+01
  7.8275E+01
  7.8275E+01
  7.8275E+01
  7.8275E+01
  7.8275E+01
  7.8275E+01
  9.8855E+01
  9.8855E+01
  9.8855E+01
  9.8855E+01
  9.8855E+01
  9.8855E+01
  9.8855E+01
  9.8855E+01
  9.8855E+01
  9.3860E+01
  9.3860E+01
  9.3860E+01
  9.3860E+01
  9.3860E+01
  9.3860E+01
  9.3860E+01
  9.3860E+01
  9.3860E+01
  7.0378E+01
  7.0378E+01
  7.0378E+01
  7.0378E+01
  7.0378E+01
  7.0378E+01
  7.0378E+01
  7.0378E+01
  7.0378E+01
  6.4757E+01
  6.4757E+01
  6.4757E+01
  6.4757E+01
  6.4757E+01
  6.4757E+01
  6.4757E+01
  6.4757E+01
  6.4757E+01
  8.5641E+01
  8.5641E+01
  8.5641E+01
  8.5641E+01
  8.5641E+01
  8.5641E+01
  8.5641E+01
  8.5641E+01
  8.5641E+01
  9.9599E+01
  9.9599E+01
  9.9599E+01
  9.9599E+01
  9.9599E+01
  9.9599E+01
  9.9599E+01
  9.9599E+01
  9.9599E+01
  8.4251E+01
  8.4251E+01
  8.4251E+01
  8.4251E+01
  8.4251E+01
  8.4251E+01
  8.4251E+01
  8.4251E+01
  8.4251E+01
  6.7488E+01
  6.7488E+01
  6.7488E+01
  6.7488E+01
  6.7488E+01
  6.7488E+01
  6.7488E+01
  6.7488E+01
  6.7488E+01
  7.6536E+01
  7.6536E+01
  7.6536E+01
  7.6536E+01
  7.6536E+01
  7.6536E+01
  7.6536E+01
  7.6536E+01
  7.6536E+01
  9.6730E+01
  9.6730E+01
  9.6730E+01
  9.6730E+01
  9.6730E+01
  9.6730E+01
  9.6730E+01
  9.6730E+01
  9.6730E+01
  9.6263E+01
  9.6263E+01
  9.6263E+01
  9.6263E+01
  9.6263E+01
  9.6263E+01
  9.6263E+01
  9.6263E+01
  9.6263E+01
  6.9546E+01
  6.9546E+01
  6.9546E+01
  6.9546E+01
  6.9546E+01
  6.9546E+01
  6.9546E+01
  6.9546E+01
  6.9546E+01
  4.2215E+01
  4.2215E+01
  4.2215E+01
  4.2215E+01
  4.2215E+01
  4.2215E+01
  4.2215E+01
  4.2215E+01
  4.2215E+01
  3.2235E+01
  3.2235E+01
  3.2235E+01
  3.2235E+01
  3.2235E+01
  3.2235E+01
  3.2235E+01
  3.2235E+01
  3.2235E+01
   5.0174E-01
  3.8094E+01
  4.9656E+01
  6.1219E+01
  4.9656E+01
  4.9656E+01
  4.9656E+01
  6.1219E+01
  4.9656E+01
  3.8094E+01
  5.8794E+01
  7.6989E+01
  9.5184E+01
  7.6989E+01
  7.6989E+01
  7.6989E+01
  9.5184E+01
  7.6989E+01
  5.8794E+01
  7.2599E+01
  9.1706E+01
  1.1081E+02
  9.1706E+01
  9.1706E+01
  9.1706E+01
  1.1081E+02
  9.1706E+01
  7.2599E+01
  5.6754E+01
  6.9433E+01
  8.2112E+01
  6.9433E+01
  6.9433E+01
  6.9433E+01
  8.2112E+01
  6.9433E+01
  5.6754E+01
  4.4048E+01
  5.6635E+01
  6.9221E+01
  5.6635E+01
  5.6635E+01
  5.6635E+01
  6.9221E+01
  5.6635E+01
  4.4048E+01
  3.6893E+01
  4.7434E+01
  5.7975E+01
  4.7434E+01
  4.7434E+01
  4.7434E+01
  5.7975E+01
  4.7434E+01
  3.6893E+01
  5.3656E+01
  7.0628E+01
  8.7599E+01
  7.0628E+01
  7.0628E+01
  7.0628E+01
  8.7599E+01
  7.0628E+01
  5.3656E+01
  6.9843E+01
  9.3258E+01
  1.1667E+02
  9.3258E+01
  9.3258E+01
  9.3258E+01
  1.1667E+02
  9.3258E+01
  6.9843E+01
  5.4040E+01
  6.7981E+01
  8.1922E+01
  6.7981E+01
  6.7981E+01
  6.7981E+01
  8.1922E+01
  6.7981E+01
  5.4040E+01
  4.5011E+01
  5.3327E+01
  6.1642E+01
  5.3327E+01
  5.3327E+01
  5.3327E+01
  6.1642E+01
  5.3327E+01
  4.5011E+01
  3.9088E+01
  4.7268E+01
  5.5448E+01
  4.7268E+01
  4.7268E+01
  4.7268E+01
  5.5448E+01
  4.7268E+01
  3.9088E+01
  4.5696E+01
  6.2038E+01
  7.8380E+01
  6.2038E+01
  6.2038E+01
  6.2038E+01
  7.8380E+01
  6.2038E+01
  4.5696E+01
  6.5557E+01
  9.2051E+01
  1.1854E+02
  9.2051E+01
  9.2051E+01
  9.2051E+01
  1.1854E+02
  9.2051E+01
  6.5557E+01
  5.7450E+01
  7.4153E+01
  9.0855E+01
  7.4153E+01
  7.4153E+01
  7.4153E+01
  9.0855E+01
  7.4153E+01
  5.7450E+01
  4.7058E+01
  5.4509E+01
  6.1960E+01
  5.4509E+01
  5.4509E+01
  5.4509E+01
  6.1960E+01
  5.4509E+01
  4.7058E+01
  4.1585E+01
  4.9361E+01
  5.7138E+01
  4.9361E+01
  4.9361E+01
  4.9361E+01
  5.7138E+01
  4.9361E+01
  4.1585E+01
  4.6473E+01
  5.9637E+01
  7.2801E+01
  5.9637E+01
  5.9637E+01
  5.9637E+01
  7.2801E+01
  5.9637E+01
  4.6473E+01
  7.0729E+01
  9.4553E+01
  1.1838E+02
  9.4553E+01
  9.4553E+01
  9.4553E+01
  1.1838E+02
  9.4553E+01
  7.0729E+01
  6.6586E+01
  8.6137E+01
  1.0569E+02
  8.6137E+01
  8.6137E+01
  8.6137E+01
  1.0569E+02
  8.6137E+01
  6.6586E+01
  4.9627E+01
  6.0730E+01
  7.1833E+01
  6.0730E+01
  6.0730E+01
  6.0730E+01
  7.1833E+01
  6.0730E+01
  4.9627E+01
  4.8465E+01
  5.9798E+01
  7.1130E+01
  5.9798E+01
  5.9798E+01
  5.9798E+01
  7.1130E+01
  5.9798E+01
  4.8465E+01
   5.0174E-01
  6.1219E+01
  4.9656E+01
  3.8094E+01
  4.9656E+01
  4.9656E+01
  4.9656E+01
  3.8094E+01
  4.9656E+01
  6.1219E+01
  9.5184E+01
  7.6989E+01
  5.8794E+01
  7.6989E+01
  7.6989E+01
  7.6989E+01
  5.8794E+01
  7.6989E+01
  9.5184E+01
  1.1081E+02
  9.1706E+01
  7.2599E+01
  9.1706E+01
  9.1706E+01
  9.1706E+01
  7.2599E+01
  9.1706E+01
  1.1081E+02
  8.2112E+01
  6.9433E+01
  5.6754E+01
  6.9433E+01
  6.9433E+01
  6.9433E+01
  5.6754E+01
  6.9433E+01
  8.2112E+01
  6.9221E+01
  5.6635E+01
  4.4048E+01
  5.6635E+01
  5.6635E+01
  5.6635E+01
  4.4048E+01
  5.6635E+01
  6.9221E+01
  5.7975E+01
  4.7434E+01
  3.6893E+01
  4.7434E+01
  4.7434E+01
  4.7434E+01
  3.6893E+01
  4.7434E+01
  5.7975E+01
  8.7599E+01
  7.0628E+01
  5.3656E+01
  7.0628E+01
  7.0628E+01
  7.0628E+01
  5.3656E+01
  7.0628E+01
  8.7599E+01
  1.1667E+02
  9.3258E+01
  6.9843E+01
  9.3258E+01
  9.3258E+01
  9.3258E+01
  6.9843E+01
  9.3258E+01
  1.1667E+02
  8.1922E+01
  6.7981E+01
  5.4040E+01
  6.7981E+01
  6.7981E+01
  6.7981E+01
  5.4040E+01
  6.7981E+01
  8.1922E+01
  6.1642E+01
  5.3327E+01
  4.5011E+01
  5.3327E+01
  5.3327E+01
  5.3327E+01
  4.5011E+01
  5.3327E+01
  6.1642E+01
  5.5448E+01
  4.7268E+01
  3.9088E+01
  4.7268E+01
  4.7268E+01
  4.7268E+01
  3.9088E+01
  4.7268E+01
  5.5448E+01
  7.8380E+01
  6.2038E+01
  4.5696E+01
  6.2038E+01
  6.2038E+01
  6.2038E+01
  4.5696E+01
  6.2038E+01
  7.8380E+01
  1.1854E+02
  9.2051E+01
  6.5557E+01
  9.2051E+01
  9.2051E+01
  9.2051E+01
  6.5557E+01
  9.2051E+01
  1.1854E+02
  9.0855E+01
  7.4153E+01
  5.7450E+01
  7.4153E+01
  7.4153E+01
  7.4153E+01
  5.7450E+01
  7.4153E+01
  9.0855E+01
  6.1960E+01
  5.4509E+01
  4.7058E+01
  5.4509E+01
  5.4509E+01
  5.4509E+01
  4.7058E+01
  5.4509E+01
  6.1960E+01
  5.7138E+01
  4.9361E+01
  4.1585E+01
  4.9361E+01
  4.9361E+01
  4.9361E+01
  4.1585E+01
  4.9361E+01
  5.7138E+01
  7.2801E+01
  5.9637E+01
  4.6473E+01
  5.9637E+01
  5.9637E+01
  5.9637E+01
  4.6473E+01
  5.9637E+01
  7.2801E+01
  1.1838E+02
  9.4553E+01
  7.0729E+01
  9.4553E+01
  9.4553E+01
  9.4553E+01
  7.0729E+01
  9.4553E+01
  1.1838E+02
  1.0569E+02
  8.6137E+01
  6.6586E+01
  8.6137E+01
  8.6137E+01
  8.6137E+01
  6.6586E+01
  8.6137E+01
  1.0569E+02
  7.1833E+01
  6.0730E+01
  4.9627E+01
  6.0730E+01
  6.0730E+01
  6.0730E+01
  4.9627E+01
  6.0730E+01
  7.1833E+01
  7.1130E+01
  5.9798E+01
  4.8465E+01
  5.9798E+01
  5.9798E+01
  5.9798E+01
  4.8465E+01
  5.9798E+01
  7.1130E+01
   5.0355E-01
  2.3680E+01
  2.3680E+01
  2.3680E+01
  2.3680E+01
  2.3680E+01
  2.3680E+01
  2.3680E+01
  2.3680E+01
  2.3680E+01
  4.1791E+01
  4.1791E+01
  4.1791E+01
  4.1791E+01
  4.1791E+01
  4.1791E+01
  4.1791E+01
  4.1791E+01
  4.1791E+01
  7.2575E+01
  7.2575E+01
  7.2575E+01
  7.2575E+01
  7.2575E+01
  7.2575E+01
  7.2575E+01
  7.2575E+01
  7.2575E+01
  9.3985E+01
  9.3985E+01
  9.3985E+01
  9.3985E+01
  9.3985E+01
  9.3985E+01
  9.3985E+01
  9.3985E+01
  9.3985E+01
  1.1371E+02
  1.1371E+02
  1.1371E+02
  1.1371E+02
  1.1371E+02
  1.1371E+02
  1.1371E+02
  1.1371E+02
  1.1371E+02
  1.3294E+02
  1.3294E+02
  1.3294E+02
  1.3294E+02
  1.3294E+02
  1.3294E+02
  1.3294E+02
  1.3294E+02
  1.3294E+02
  1.4101E+02
  1.4101E+02
  1.4101E+02
  1.4101E+02
  1.4101E+02
  1.4101E+02
  1.4101E+02
  1.4101E+02
  1.4101E+02
  1.3653E+02
  1.3653E+02
  1.3653E+02
  1.3653E+02
  1.3653E+02
  1.3653E+02
  1.3653E+02
  1.3653E+02
  1.3653E+02
  1.2937E+02
  1.2937E+02
  1.2937E+02
  1.2937E+02
  1.2937E+02
  1.2937E+02
  1.2937E+02
  1.2937E+02
  1.2937E+02
  1.1974E+02
  1.1974E+02
  1.1974E+02
  1.1974E+02
  1.1974E+02
  1.1974E+02
  1.1974E+02
  1.1974E+02
  1.1974E+02
  9.8585E+01
  9.8585E+01
  9.8585E+01
  9.8585E+01
  9.8585E+01
  9.8585E+01
  9.8585E+01
  9.8585E+01
  9.8585E+01
  6.8667E+01
  6.8667E+01
  6.8667E+01
  6.8667E+01
  6.8667E+01
  6.8667E+01
  6.8667E+01
  6.8667E+01
  6.8667E+01
  4.2393E+01
  4.2393E+01
  4.2393E+01
  4.2393E+01
  4.2393E+01
  4.2393E+01
  4.2393E+01
  4.2393E+01
  4.2393E+01
  2.4461E+01
  2.4461E+01
  2.4461E+01
  2.4461E+01
  2.4461E+01
  2.4461E+01
  2.4461E+01
  2.4461E+01
  2.4461E+01
  2.9662E+01
  2.9662E+01
  2.9662E+01
  2.9662E+01
  2.9662E+01
  2.9662E+01
  2.9662E+01
  2.9662E+01
  2.9662E+01
  5.8795E+01
  5.8795E+01
  5.8795E+01
  5.8795E+01
  5.8795E+01
  5.8795E+01
  5.8795E+01
  5.8795E+01
  5.8795E+01
  8.5699E+01
  8.5699E+01
  8.5699E+01
  8.5699E+01
  8.5699E+01
  8.5699E+01
  8.5699E+01
  8.5699E+01
  8.5699E+01
  1.0416E+02
  1.0416E+02
  1.0416E+02
  1.0416E+02
  1.0416E+02
  1.0416E+02
  1.0416E+02
  1.0416E+02
  1.0416E+02
  1.2249E+02
  1.2249E+02
  1.2249E+02
  1.2249E+02
  1.2249E+02
  1.2249E+02
  1.2249E+02
  1.2249E+02
  1.2249E+02
  1.3711E+02
  1.3711E+02
  1.3711E+02
  1.3711E+02
  1.3711E+02
  1.3711E+02
  1.3711E+02
  1.3711E+02
  1.3711E+02
  1.4169E+02
  1.4169E+02
  1.4169E+02
  1.4169E+02
  1.4169E+02
  1.4169E+02
  1.4169E+02
  1.4169E+02
  1.4169E+02
   5.0444E-01
  5.6293E+01
  5.6293E+01
  5.6293E+01
  5.6293E+01
  5.6293E+01
  5.6293E+01
  5.6293E+01
  5.6293E+01
  5.6293E+01
  7.5747E+01
  7.5747E+01
  7.5747E+01
  7.5747E+01
  7.5747E+01
  7.5747E+01
  7.5747E+01
  7.5747E+01
  7.5747E+01
  9.8124E+01
  9.8124E+01
  9.8124E+01
  9.8124E+01
  9.8124E+01
  9.8124E+01
  9.8124E+01
  9.8124E+01
  9.8124E+01
  9.0114E+01
  9.0114E+01
  9.0114E+01
  9.0114E+01
  9.0114E+01
  9.0114E+01
  9.0114E+01
  9.0114E+01
  9.0114E+01
  7.3950E+01
  7.3950E+01
  7.3950E+01
  7.3950E+01
  7.3950E+01
  7.3950E+01
  7.3950E+01
  7.3950E+01
  7.3950E+01
  7.9814E+01
  7.9814E+01
  7.9814E+01
  7.9814E+01
  7.9814E+01
  7.9814E+01
  7.9814E+01
  7.9814E+01
  7.9814E+01
  8.8872E+01
  8.8872E+01
  8.8872E+01
  8.8872E+01
  8.8872E+01
  8.8872E+01
  8.8872E+01
  8.8872E+01
  8.8872E+01
  7.6268E+01
  7.6268E+01
  7.6268E+01
  7.6268E+01
  7.6268E+01
  7.6268E+01
  7.6268E+01
  7.6268E+01
  7.6268E+01
  7.1302E+01
  7.1302E+01
  7.1302E+01
  7.1302E+01
  7.1302E+01
  7.1302E+01
  7.1302E+01
  7.1302E+01
  7.1302E+01
  8.7657E+01
  8.7657E+01
  8.7657E+01
  8.7657E+01
  8.7657E+01
  8.7657E+01
  8.7657E+01
  8.7657E+01
  8.7657E+01
  9.2407E+01
  9.2407E+01
  9.2407E+01
  9.2407E+01
  9.2407E+01
  9.2407E+01
  9.2407E+01
  9.2407E+01
  9.2407E+01
  8.1041E+01
  8.1041E+01
  8.1041E+01
  8.1041E+01
  8.1041E+01
  8.1041E+01
  8.1041E+01
  8.1041E+01
  8.1041E+01
  7.9048E+01
  7.9048E+01
  7.9048E+01
  7.9048E+01
  7.9048E+01
  7.9048E+01
  7.9048E+01
  7.9048E+01
  7.9048E+01
  8.9008E+01
  8.9008E+01
  8.9008E+01
  8.9008E+01
  8.9008E+01
  8.9008E+01
  8.9008E+01
  8.9008E+01
  8.9008E+01
  8.2685E+01
  8.2685E+01
  8.2685E+01
  8.2685E+01
  8.2685E+01
  8.2685E+01
  8.2685E+01
  8.2685E+01
  8.2685E+01
  6.6972E+01
  6.6972E+01
  6.6972E+01
  6.6972E+01
  6.6972E+01
  6.6972E+01
  6.6972E+01
  6.6972E+01
  6.6972E+01
  7.8227E+01
  7.8227E+01
  7.8227E+01
  7.8227E+01
  7.8227E+01
  7.8227E+01
  7.8227E+01
  7.8227E+01
  7.8227E+01
  9.4942E+01
  9.4942E+01
  9.4942E+01
  9.4942E+01
  9.4942E+01
  9.4942E+01
  9.4942E+01
  9.4942E+01
  9.4942E+01
  8.5750E+01
  8.5750E+01
  8.5750E+01
  8.5750E+01
  8.5750E+01
  8.5750E+01
  8.5750E+01
  8.5750E+01
  8.5750E+01
  5.8079E+01
  5.8079E+01
  5.8079E+01
  5.8079E+01
  5.8079E+01
  5.8079E+01
  5.8079E+01
  5.8079E+01
  5.8079E+01
  4.2262E+01
  4.2262E+01
  4.2262E+01
  4.2262E+01
  4.2262E+01
  4.2262E+01
  4.2262E+01
  4.2262E+01
  4.2262E+01
   5.0610E-01
  5.2044E+01
  4.6881E+01
  4.1718E+01
  4.6881E+01
  4.6881E+01
  4.6881E+01
  4.1718E+01
  4.6881E+01
  5.2044E+01
  5.7149E+01
  5.1863E+01
  4.6578E+01
  5.1863E+01
  5.1863E+01
  5.1863E+01
  4.6578E+01
  5.1863E+01
  5.7149E+01
  6.0276E+01
  5.4976E+01
  4.9677E+01
  5.4976E+01
  5.4976E+01
  5.4976E+01
  4.9677E+01
  5.4976E+01
  6.0276E+01
  8.6052E+01
  7.7748E+01
  6.9444E+01
  7.7748E+01
  7.7748E+01
  7.7748E+01
  6.9444E+01
  7.7748E+01
  8.6052E+01
  1.0074E+02
  9.0996E+01
  8.1248E+01
  9.0996E+01
  9.0996E+01
  9.0996E+01
  8.1248E+01
  9.0996E+01
  1.0074E+02
  6.8084E+01
  6.2004E+01
  5.5925E+01
  6.2004E+01
  6.2004E+01
  6.2004E+01
  5.5925E+01
  6.2004E+01
  6.8084E+01
  5.9970E+01
  5.4954E+01
  4.9938E+01
  5.4954E+01
  5.4954E+01
  5.4954E+01
  4.9938E+01
  5.4954E+01
  5.9970E+01
  6.1077E+01
  5.5579E+01
  5.0081E+01
  5.5579E+01
  5.5579E+01
  5.5579E+01
  5.0081E+01
  5.5579E+01
  6.1077E+01
  7.2488E+01
  6.5465E+01
  5.8443E+01
  6.5465E+01
  6.5465E+01
  6.5465E+01
  5.8443E+01
  6.5465E+01
  7.2488E+01
  1.0280E+02
  9.2952E+01
  8.3106E+01
  9.2952E+01
  9.2952E+01
  9.2952E+01
  8.3106E+01
  9.2952E+01
  1.0280E+02
  8.1176E+01
  7.4063E+01
  6.6950E+01
  7.4063E+01
  7.4063E+01
  7.4063E+01
  6.6950E+01
  7.4063E+01
  8.1176E+01
  5.8350E+01
  5.3781E+01
  4.9211E+01
  5.3781E+01
  5.3781E+01
  5.3781E+01
  4.9211E+01
  5.3781E+01
  5.8350E+01
  6.2748E+01
  5.7198E+01
  5.1649E+01
  5.7198E+01
  5.7198E+01
  5.7198E+01
  5.1649E+01
  5.7198E+01
  6.2748E+01
  6.2905E+01
  5.7433E+01
  5.1962E+01
  5.7433E+01
  5.7433E+01
  5.7433E+01
  5.1962E+01
  5.7433E+01
  6.2905E+01
  9.1879E+01
  8.3569E+01
  7.5258E+01
  8.3569E+01
  8.3569E+01
  8.3569E+01
  7.5258E+01
  8.3569E+01
  9.1879E+01
  9.8255E+01
  8.9474E+01
  8.0692E+01
  8.9474E+01
  8.9474E+01
  8.9474E+01
  8.0692E+01
  8.9474E+01
  9.8255E+01
  6.5140E+01
  5.9729E+01
  5.4318E+01
  5.9729E+01
  5.9729E+01
  5.9729E+01
  5.4318E+01
  5.9729E+01
  6.5140E+01
  6.0934E+01
  5.5608E+01
  5.0282E+01
  5.5608E+01
  5.5608E+01
  5.5608E+01
  5.0282E+01
  5.5608E+01
  6.0934E+01
  5.9749E+01
  5.4311E+01
  4.8874E+01
  5.4311E+01
  5.4311E+01
  5.4311E+01
  4.8874E+01
  5.4311E+01
  5.9749E+01
  7.5978E+01
  6.8574E+01
  6.1170E+01
  6.8574E+01
  6.8574E+01
  6.8574E+01
  6.1170E+01
  6.8574E+01
  7.5978E+01
  1.0278E+02
  9.2628E+01
  8.2475E+01
  9.2628E+01
  9.2628E+01
  9.2628E+01
  8.2475E+01
  9.2628E+01
  1.0278E+02
   5.0610E-01
  4.1718E+01
  4.6881E+01
  5.2044E+01
  4.6881E+01
  4.6881E+01
  4.6881E+01
  5.2044E+01
  4.6881E+01
  4.1718E+01
  4.6578E+01
  5.1863E+01
  5.7149E+01
  5.1863E+01
  5.1863E+01
  5.1863E+01
  5.7149E+01
  5.1863E+01
  4.6578E+01
  4.9677E+01
  5.4976E+01
  6.0276E+01
  5.4976E+01
  5.4976E+01
  5.4976E+01
  6.0276E+01
  5.4976E+01
  4.9677E+01
  6.9444E+01
  7.7748E+01
  8.6052E+01
  7.7748E+01
  7.7748E+01
  7.7748E+01
  8.6052E+01
  7.7748E+01
  6.9444E+01
  8.1248E+01
  9.0996E+01
  1.0074E+02
  9.0996E+01
  9.0996E+01
  9.0996E+01
  1.0074E+02
  9.0996E+01
  8.1248E+01
  5.5925E+01
  6.2004E+01
  6.8084E+01
  6.2004E+01
  6.2004E+01
  6.2004E+01
  6.8084E+01
  6.2004E+01
  5.5925E+01
  4.9938E+01
  5.4954E+01
  5.9970E+01
  5.4954E+01
  5.4954E+01
  5.4954E+01
  5.9970E+01
  5.4954E+01
  4.9938E+01
  5.0081E+01
  5.5579E+01
  6.1077E+01
  5.5579E+01
  5.5579E+01
  5.5579E+01
  6.1077E+01
  5.5579E+01
  5.0081E+01
  5.8443E+01
  6.5465E+01
  7.2488E+01
  6.5465E+01
  6.5465E+01
  6.5465E+01
  7.2488E+01
  6.5465E+01
  5.8443E+01
  8.3106E+01
  9.2952E+01
  1.0280E+02
  9.2952E+01
  9.2952E+01
  9.2952E+01
  1.0280E+02
  9.2952E+01
  8.3106E+01
  6.6950E+01
  7.4063E+01
  8.1176E+01
  7.4063E+01
  7.4063E+01
  7.4063E+01
  8.1176E+01
  7.4063E+01
  6.6950E+01
  4.9211E+01
  5.3781E+01
  5.8350E+01
  5.3781E+01
  5.3781E+01
  5.3781E+01
  5.8350E+01
  5.3781E+01
  4.9211E+01
  5.1649E+01
  5.7198E+01
  6.2748E+01
  5.7198E+01
  5.7198E+01
  5.7198E+01
  6.2748E+01
  5.7198E+01
  5.1649E+01
  5.1962E+01
  5.7433E+01
  6.2905E+01
  5.7433E+01
  5.7433E+01
  5.7433E+01
  6.2905E+01
  5.7433E+01
  5.1962E+01
  7.5258E+01
  8.3569E+01
  9.1879E+01
  8.3569E+01
  8.3569E+01
  8.3569E+01
  9.1879E+01
  8.3569E+01
  7.5258E+01
  8.0692E+01
  8.9474E+01
  9.8255E+01
  8.9474E+01
  8.9474E+01
  8.9474E+01
  9.8255E+01
  8.9474E+01
  8.0692E+01
  5.4318E+01
  5.9729E+01
  6.5140E+01
  5.9729E+01
  5.9729E+01
  5.9729E+01
  6.5140E+01
  5.9729E+01
  5.4318E+01
  5.0282E+01
  5.5608E+01
  6.0934E+01
  5.5608E+01
  5.5608E+01
  5.5608E+01
  6.0934E+01
  5.5608E+01
  5.0282E+01
  4.8874E+01
  5.4311E+01
  5.9749E+01
  5.4311E+01
  5.4311E+01
  5.4311E+01
  5.9749E+01
  5.4311E+01
  4.8874E+01
  6.1170E+01
  6.8574E+01
  7.5978E+01
  6.8574E+01
  6.8574E+01
  6.8574E+01
  7.5978E+01
  6.8574E+01
  6.1170E+01
  8.2475E+01
  9.2628E+01
  1.0278E+02
  9.2628E+01
  9.2628E+01
  9.2628E+01
  1.0278E+02
  9.2628E+01
  8.2475E+01
   5.0874E-01
  7.5541E+00
  7.5541E+00
  7.5541E+00
  7.5541E+00
  7.5541E+00
  7.5541E+00
  7.5541E+00
  7.5541E+00
  7.5541E+00
  1.3322E+01
  1.3322E+01
  1.3322E+01
  1.3322E+01
  1.3322E+01
  1.3322E+01
  1.3322E+01
  1.3322E+01
  1.3322E+01
  2.4068E+01
  2.4068E+01
  2.4068E+01
  2.4068E+01
  2.4068E+01
  2.4068E+01
  2.4068E+01
  2.4068E+01
  2.4068E+01
  3.4211E+01
  3.4211E+01
  3.4211E+01
  3.4211E+01
  3.4211E+01
  3.4211E+01
  3.4211E+01
  3.4211E+01
  3.4211E+01
  4.5389E+01
  4.5389E+01
  4.5389E+01
  4.5389E+01
  4.5389E+01
  4.5389E+01
  4.5389E+01
  4.5389E+01
  4.5389E+01
  5.6939E+01
  5.6939E+01
  5.6939E+01
  5.6939E+01
  5.6939E+01
  5.6939E+01
  5.6939E+01
  5.6939E+01
  5.6939E+01
  6.6946E+01
  6.6946E+01
  6.6946E+01
  6.6946E+01
  6.6946E+01
  6.6946E+01
  6.6946E+01
  6.6946E+01
  6.6946E+01
  7.5998E+01
  7.5998E+01
  7.5998E+01
  7.5998E+01
  7.5998E+01
  7.5998E+01
  7.5998E+01
  7.5998E+01
  7.5998E+01
  8.5805E+01
  8.5805E+01
  8.5805E+01
  8.5805E+01
  8.5805E+01
  8.5805E+01
  8.5805E+01
  8.5805E+01
  8.5805E+01
  9.5616E+01
  9.5616E+01
  9.5616E+01
  9.5616E+01
  9.5616E+01
  9.5616E+01
  9.5616E+01
  9.5616E+01
  9.5616E+01
  1.0362E+02
  1.0362E+02
  1.0362E+02
  1.0362E+02
  1.0362E+02
  1.0362E+02
  1.0362E+02
  1.0362E+02
  1.0362E+02
  1.1048E+02
  1.1048E+02
  1.1048E+02
  1.1048E+02
  1.1048E+02
  1.1048E+02
  1.1048E+02
  1.1048E+02
  1.1048E+02
  1.1790E+02
  1.1790E+02
  1.1790E+02
  1.1790E+02
  1.1790E+02
  1.1790E+02
  1.1790E+02
  1.1790E+02
  1.1790E+02
  1.2509E+02
  1.2509E+02
  1.2509E+02
  1.2509E+02
  1.2509E+02
  1.2509E+02
  1.2509E+02
  1.2509E+02
  1.2509E+02
  1.3029E+02
  1.3029E+02
  1.3029E+02
  1.3029E+02
  1.3029E+02
  1.3029E+02
  1.3029E+02
  1.3029E+02
  1.3029E+02
  1.3420E+02
  1.3420E+02
  1.3420E+02
  1.3420E+02
  1.3420E+02
  1.3420E+02
  1.3420E+02
  1.3420E+02
  1.3420E+02
  1.3854E+02
  1.3854E+02
  1.3854E+02
  1.3854E+02
  1.3854E+02
  1.3854E+02
  1.3854E+02
  1.3854E+02
  1.3854E+02
  1.4254E+02
  1.4254E+02
  1.4254E+02
  1.4254E+02
  1.4254E+02
  1.4254E+02
  1.4254E+02
  1.4254E+02
  1.4254E+02
  1.4446E+02
  1.4446E+02
  1.4446E+02
  1.4446E+02
  1.4446E+02
  1.4446E+02
  1.4446E+02
  1.4446E+02
  1.4446E+02
  1.4513E+02
  1.4513E+02
  1.4513E+02
  1.4513E+02
  1.4513E+02
  1.4513E+02
  1.4513E+02
  1.4513E+02
  1.4513E+02
  1.4546E+02
  1.4546E+02
  1.4546E+02
  1.4546E+02
  1.4546E+02
  1.4546E+02
  1.4546E+02
  1.4546E+02
  1.4546E+02
   5.0910E-01
  2.8403E+01
  2.8403E+01
  2.8403E+01
  2.8403E+01
  2.8403E+01
  2.8403E+01
  2.8403E+01
  2.8403E+01
  2.8403E+01
  4.6126E+01
  4.6126E+01
  4.6126E+01
  4.6126E+01
  4.6126E+01
  4.6126E+01
  4.6126E+01
  4.6126E+01
  4.6126E+01
  6.3057E+01
  6.3057E+01
  6.3057E+01
  6.3057E+01
  6.3057E+01
  6.3057E+01
  6.3057E+01
  6.3057E+01
  6.3057E+01
  6.3182E+01
  6.3182E+01
  6.3182E+01
  6.3182E+01
  6.3182E+01
  6.3182E+01
  6.3182E+01
  6.3182E+01
  6.3182E+01
  6.7426E+01
  6.7426E+01
  6.7426E+01
  6.7426E+01
  6.7426E+01
  6.7426E+01
  6.7426E+01
  6.7426E+01
  6.7426E+01
  7.4554E+01
  7.4554E+01
  7.4554E+01
  7.4554E+01
  7.4554E+01
  7.4554E+01
  7.4554E+01
  7.4554E+01
  7.4554E+01
  7.8034E+01
  7.8034E+01
  7.8034E+01
  7.8034E+01
  7.8034E+01
  7.8034E+01
  7.8034E+01
  7.8034E+01
  7.8034E+01
  6.6530E+01
  6.6530E+01
  6.6530E+01
  6.6530E+01
  6.6530E+01
  6.6530E+01
  6.6530E+01
  6.6530E+01
  6.6530E+01
  5.6488E+01
  5.6488E+01
  5.6488E+01
  5.6488E+01
  5.6488E+01
  5.6488E+01
  5.6488E+01
  5.6488E+01
  5.6488E+01
  4.7150E+01
  4.7150E+01
  4.7150E+01
  4.7150E+01
  4.7150E+01
  4.7150E+01
  4.7150E+01
  4.7150E+01
  4.7150E+01
  3.8417E+01
  3.8417E+01
  3.8417E+01
  3.8417E+01
  3.8417E+01
  3.8417E+01
  3.8417E+01
  3.8417E+01
  3.8417E+01
  5.0573E+01
  5.0573E+01
  5.0573E+01
  5.0573E+01
  5.0573E+01
  5.0573E+01
  5.0573E+01
  5.0573E+01
  5.0573E+01
  6.3451E+01
  6.3451E+01
  6.3451E+01
  6.3451E+01
  6.3451E+01
  6.3451E+01
  6.3451E+01
  6.3451E+01
  6.3451E+01
  7.2573E+01
  7.2573E+01
  7.2573E+01
  7.2573E+01
  7.2573E+01
  7.2573E+01
  7.2573E+01
  7.2573E+01
  7.2573E+01
  7.3770E+01
  7.3770E+01
  7.3770E+01
  7.3770E+01
  7.3770E+01
  7.3770E+01
  7.3770E+01
  7.3770E+01
  7.3770E+01
  7.3013E+01
  7.3013E+01
  7.3013E+01
  7.3013E+01
  7.3013E+01
  7.3013E+01
  7.3013E+01
  7.3013E+01
  7.3013E+01
  7.4939E+01
  7.4939E+01
  7.4939E+01
  7.4939E+01
  7.4939E+01
  7.4939E+01
  7.4939E+01
  7.4939E+01
  7.4939E+01
  6.7737E+01
  6.7737E+01
  6.7737E+01
  6.7737E+01
  6.7737E+01
  6.7737E+01
  6.7737E+01
  6.7737E+01
  6.7737E+01
  5.0812E+01
  5.0812E+01
  5.0812E+01
  5.0812E+01
  5.0812E+01
  5.0812E+01
  5.0812E+01
  5.0812E+01
  5.0812E+01
  3.6411E+01
  3.6411E+01
  3.6411E+01
  3.6411E+01
  3.6411E+01
  3.6411E+01
  3.6411E+01
  3.6411E+01
  3.6411E+01
  3.4508E+01
  3.4508E+01
  3.4508E+01
  3.4508E+01
  3.4508E+01
  3.4508E+01
  3.4508E+01
  3.4508E+01
  3.4508E+01
