Scalar VONMISES under NLDynamic for nodeset
189
   0.0000E+00
  0.0000E+00
  0.0000E+00
  0.0000E+00
  0.0000E+00
  0.0000E+00
  0.0000E+00
  0.0000E+00
  0.0000E+00
  0.0000E+00
  0.0000E+00
  0.0000E+00
  0.0000E+00
  0.0000E+00
  0.0000E+00
  0.0000E+00
  0.0000E+00
  0.0000E+00
  0.0000E+00
  0.0000E+00
  0.0000E+00
  0.0000E+00
  0.0000E+00
  0.0000E+00
  0.0000E+00
  0.0000E+00
  0.0000E+00
  0.0000E+00
  0.0000E+00
  0.0000E+00
  0.0000E+00
  0.0000E+00
  0.0000E+00
  0.0000E+00
  0.0000E+00
  0.0000E+00
  0.0000E+00
  0.0000E+00
  0.0000E+00
  0.0000E+00
  0.0000E+00
  0.0000E+00
  0.0000E+00
  0.0000E+00
  0.0000E+00
  0.0000E+00
  0.0000E+00
  0.0000E+00
  0.0000E+00
  0.0000E+00
  0.0000E+00
  0.0000E+00
  0.0000E+00
  0.0000E+00
  0.0000E+00
  0.0000E+00
  0.0000E+00
  0.0000E+00
  0.0000E+00
  0.0000E+00
  0.0000E+00
  0.0000E+00
  0.0000E+00
  0.0000E+00
  0.0000E+00
  0.0000E+00
  0.0000E+00
  0.0000E+00
  0.0000E+00
  0.0000E+00
  0.0000E+00
  0.0000E+00
  0.0000E+00
  0.0000E+00
  0.0000E+00
  0.0000E+00
  0.0000E+00
  0.0000E+00
  0.0000E+00
  0.0000E+00
  0.0000E+00
  0.0000E+00
  0.0000E+00
  0.0000E+00
  0.0000E+00
  0.0000E+00
  0.0000E+00
  0.0000E+00
  0.0000E+00
  0.0000E+00
  0.0000E+00
  0.0000E+00
  0.0000E+00
  0.0000E+00
  0.0000E+00
  0.0000E+00
  0.0000E+00
  0.0000E+00
  0.0000E+00
  0.0000E+00
  0.0000E+00
  0.0000E+00
  0.0000E+00
  0.0000E+00
  0.0000E+00
  0.0000E+00
  0.0000E+00
  0.0000E+00
  0.0000E+00
  0.0000E+00
  0.0000E+00
  0.0000E+00
  0.0000E+00
  0.0000E+00
  0.0000E+00
  0.0000E+00
  0.0000E+00
  0.0000E+00
  0.0000E+00
  0.0000E+00
  0.0000E+00
  0.0000E+00
  0.0000E+00
  0.0000E+00
  0.0000E+00
  0.0000E+00
  0.0000E+00
  0.0000E+00
  0.0000E+00
  0.0000E+00
  0.0000E+00
  0.0000E+00
  0.0000E+00
  0.0000E+00
  0.0000E+00
  0.0000E+00
  0.0000E+00
  0.0000E+00
  0.0000E+00
  0.0000E+00
  0.0000E+00
  0.0000E+00
  0.0000E+00
  0.0000E+00
  0.0000E+00
  0.0000E+00
  0.0000E+00
  0.0000E+00
  0.0000E+00
  0.0000E+00
  0.0000E+00
  0.0000E+00
  0.0000E+00
  0.0000E+00
  0.0000E+00
  0.0000E+00
  0.0000E+00
  0.0000E+00
  0.0000E+00
  0.0000E+00
  0.0000E+00
  0.0000E+00
  0.0000E+00
  0.0000E+00
  0.0000E+00
  0.0000E+00
  0.0000E+00
  0.0000E+00
  0.0000E+00
  0.0000E+00
  0.0000E+00
  0.0000E+00
  0.0000E+00
  0.0000E+00
  0.0000E+00
  0.0000E+00
  0.0000E+00
  0.0000E+00
  0.0000E+00
  0.0000E+00
  0.0000E+00
  0.0000E+00
  0.0000E+00
  0.0000E+00
  0.0000E+00
  0.0000E+00
  0.0000E+00
  0.0000E+00
  0.0000E+00
  0.0000E+00
   3.0000E+01
  2.3360E+01
  2.1134E+01
  2.3360E+01
  2.1134E+01
  1.8741E+01
  2.1134E+01
  2.3360E+01
  2.1134E+01
  2.3360E+01
  2.9454E+01
  2.9190E+01
  2.9454E+01
  2.9190E+01
  2.8890E+01
  2.9190E+01
  2.9454E+01
  2.9190E+01
  2.9454E+01
  2.9489E+01
  3.0201E+01
  2.9489E+01
  3.0201E+01
  3.1137E+01
  3.0201E+01
  2.9489E+01
  3.0201E+01
  2.9489E+01
  3.0243E+01
  3.0360E+01
  3.0243E+01
  3.0360E+01
  3.0176E+01
  3.0360E+01
  3.0243E+01
  3.0360E+01
  3.0243E+01
  3.3775E+01
  3.0133E+01
  3.3775E+01
  3.0133E+01
  2.4938E+01
  3.0133E+01
  3.3775E+01
  3.0133E+01
  3.3775E+01
  3.1080E+03
  3.1394E+03
  3.1080E+03
  3.1394E+03
  3.1698E+03
  3.1394E+03
  3.1080E+03
  3.1394E+03
  3.1080E+03
  3.1243E+03
  3.1357E+03
  3.1243E+03
  3.1357E+03
  3.1864E+03
  3.1357E+03
  3.1243E+03
  3.1357E+03
  3.1243E+03
  3.0334E+03
  3.1252E+03
  3.0334E+03
  3.1252E+03
  3.2199E+03
  3.1252E+03
  3.0334E+03
  3.1252E+03
  3.0334E+03
  3.0131E+03
  3.1428E+03
  3.0131E+03
  3.1428E+03
  3.2484E+03
  3.1428E+03
  3.0131E+03
  3.1428E+03
  3.0131E+03
  5.8502E+02
  5.6627E+02
  5.8502E+02
  5.6627E+02
  5.4245E+02
  5.6627E+02
  5.8502E+02
  5.6627E+02
  5.8502E+02
  3.7248E+02
  3.0058E+02
  3.7248E+02
  3.0058E+02
  2.1223E+02
  3.0058E+02
  3.7248E+02
  3.0058E+02
  3.7248E+02
  3.5963E+02
  3.2554E+02
  3.5963E+02
  3.2554E+02
  2.9000E+02
  3.2554E+02
  3.5963E+02
  3.2554E+02
  3.5963E+02
  3.7177E+03
  3.7191E+03
  3.7177E+03
  3.7191E+03
  3.7235E+03
  3.7191E+03
  3.7177E+03
  3.7191E+03
  3.7177E+03
  7.3722E+03
  7.3578E+03
  7.3722E+03
  7.3578E+03
  7.3466E+03
  7.3578E+03
  7.3722E+03
  7.3578E+03
  7.3722E+03
  4.0200E+03
  3.9831E+03
  4.0200E+03
  3.9831E+03
  3.9468E+03
  3.9831E+03
  4.0200E+03
  3.9831E+03
  4.0200E+03
  1.0575E+03
  1.0394E+03
  1.0575E+03
  1.0394E+03
  1.0202E+03
  1.0394E+03
  1.0575E+03
  1.0394E+03
  1.0575E+03
  4.4740E+03
  4.4249E+03
  4.4740E+03
  4.4249E+03
  4.3720E+03
  4.4249E+03
  4.4740E+03
  4.4249E+03
  4.4740E+03
  8.5969E+03
  8.6125E+03
  8.5969E+03
  8.6125E+03
  8.6304E+03
  8.6125E+03
  8.5969E+03
  8.6125E+03
  8.5969E+03
  9.0445E+03
  9.1060E+03
  9.0445E+03
  9.1060E+03
  9.1723E+03
  9.1060E+03
  9.0445E+03
  9.1060E+03
  9.0445E+03
  9.4969E+03
  9.5135E+03
  9.4969E+03
  9.5135E+03
  9.5299E+03
  9.5135E+03
  9.4969E+03
  9.5135E+03
  9.4969E+03
  9.7121E+03
  9.7232E+03
  9.7121E+03
  9.7232E+03
  9.7318E+03
  9.7232E+03
  9.7121E+03
  9.7232E+03
  9.7121E+03
