Scalar VONMISES under NLDynamic for nodeset
189
   0.0000E+00
  0.0000E+00
  0.0000E+00
  0.0000E+00
  0.0000E+00
  0.0000E+00
  0.0000E+00
  0.0000E+00
  0.0000E+00
  0.0000E+00
  0.0000E+00
  0.0000E+00
  0.0000E+00
  0.0000E+00
  0.0000E+00
  0.0000E+00
  0.0000E+00
  0.0000E+00
  0.0000E+00
  0.0000E+00
  0.0000E+00
  0.0000E+00
  0.0000E+00
  0.0000E+00
  0.0000E+00
  0.0000E+00
  0.0000E+00
  0.0000E+00
  0.0000E+00
  0.0000E+00
  0.0000E+00
  0.0000E+00
  0.0000E+00
  0.0000E+00
  0.0000E+00
  0.0000E+00
  0.0000E+00
  0.0000E+00
  0.0000E+00
  0.0000E+00
  0.0000E+00
  0.0000E+00
  0.0000E+00
  0.0000E+00
  0.0000E+00
  0.0000E+00
  0.0000E+00
  0.0000E+00
  0.0000E+00
  0.0000E+00
  0.0000E+00
  0.0000E+00
  0.0000E+00
  0.0000E+00
  0.0000E+00
  0.0000E+00
  0.0000E+00
  0.0000E+00
  0.0000E+00
  0.0000E+00
  0.0000E+00
  0.0000E+00
  0.0000E+00
  0.0000E+00
  0.0000E+00
  0.0000E+00
  0.0000E+00
  0.0000E+00
  0.0000E+00
  0.0000E+00
  0.0000E+00
  0.0000E+00
  0.0000E+00
  0.0000E+00
  0.0000E+00
  0.0000E+00
  0.0000E+00
  0.0000E+00
  0.0000E+00
  0.0000E+00
  0.0000E+00
  0.0000E+00
  0.0000E+00
  0.0000E+00
  0.0000E+00
  0.0000E+00
  0.0000E+00
  0.0000E+00
  0.0000E+00
  0.0000E+00
  0.0000E+00
  0.0000E+00
  0.0000E+00
  0.0000E+00
  0.0000E+00
  0.0000E+00
  0.0000E+00
  0.0000E+00
  0.0000E+00
  0.0000E+00
  0.0000E+00
  0.0000E+00
  0.0000E+00
  0.0000E+00
  0.0000E+00
  0.0000E+00
  0.0000E+00
  0.0000E+00
  0.0000E+00
  0.0000E+00
  0.0000E+00
  0.0000E+00
  0.0000E+00
  0.0000E+00
  0.0000E+00
  0.0000E+00
  0.0000E+00
  0.0000E+00
  0.0000E+00
  0.0000E+00
  0.0000E+00
  0.0000E+00
  0.0000E+00
  0.0000E+00
  0.0000E+00
  0.0000E+00
  0.0000E+00
  0.0000E+00
  0.0000E+00
  0.0000E+00
  0.0000E+00
  0.0000E+00
  0.0000E+00
  0.0000E+00
  0.0000E+00
  0.0000E+00
  0.0000E+00
  0.0000E+00
  0.0000E+00
  0.0000E+00
  0.0000E+00
  0.0000E+00
  0.0000E+00
  0.0000E+00
  0.0000E+00
  0.0000E+00
  0.0000E+00
  0.0000E+00
  0.0000E+00
  0.0000E+00
  0.0000E+00
  0.0000E+00
  0.0000E+00
  0.0000E+00
  0.0000E+00
  0.0000E+00
  0.0000E+00
  0.0000E+00
  0.0000E+00
  0.0000E+00
  0.0000E+00
  0.0000E+00
  0.0000E+00
  0.0000E+00
  0.0000E+00
  0.0000E+00
  0.0000E+00
  0.0000E+00
  0.0000E+00
  0.0000E+00
  0.0000E+00
  0.0000E+00
  0.0000E+00
  0.0000E+00
  0.0000E+00
  0.0000E+00
  0.0000E+00
  0.0000E+00
  0.0000E+00
  0.0000E+00
  0.0000E+00
  0.0000E+00
  0.0000E+00
  0.0000E+00
  0.0000E+00
  0.0000E+00
  0.0000E+00
  0.0000E+00
  0.0000E+00
  0.0000E+00
   3.0000E+01
  8.7950E+01
  2.2529E+02
  8.7951E+01
  2.2529E+02
  1.7584E+02
  2.2530E+02
  8.7950E+01
  2.2529E+02
  8.7951E+01
  2.9053E+02
  3.0944E+02
  2.9052E+02
  3.0944E+02
  1.2801E+02
  3.0945E+02
  2.9053E+02
  3.0944E+02
  2.9052E+02
  3.5840E+02
  3.2225E+02
  3.5838E+02
  3.2225E+02
  2.2215E+02
  3.2225E+02
  3.5840E+02
  3.2225E+02
  3.5838E+02
  3.8850E+02
  3.3289E+02
  3.8846E+02
  3.3291E+02
  1.5350E+02
  3.3286E+02
  3.8850E+02
  3.3289E+02
  3.8846E+02
  2.9026E+02
  2.9892E+02
  2.9010E+02
  2.9893E+02
  3.3095E+02
  2.9891E+02
  2.9026E+02
  2.9892E+02
  2.9010E+02
  5.3481E+02
  4.4379E+02
  5.3468E+02
  4.4373E+02
  3.8468E+02
  4.4394E+02
  5.3480E+02
  4.4380E+02
  5.3467E+02
  5.4918E+02
  1.1982E+03
  5.4830E+02
  1.1980E+03
  1.6312E+03
  1.1989E+03
  5.4917E+02
  1.1982E+03
  5.4829E+02
  1.1906E+03
  2.2112E+03
  1.1853E+03
  2.2155E+03
  2.1237E+03
  2.2102E+03
  1.1905E+03
  2.2112E+03
  1.1852E+03
  2.4305E+03
  1.9391E+03
  2.4504E+03
  1.9398E+03
  1.6713E+03
  1.9393E+03
  2.4310E+03
  1.9392E+03
  2.4507E+03
  2.5021E+03
  2.0875E+03
  2.5471E+03
  2.0825E+03
  1.8664E+03
  2.0883E+03
  2.5027E+03
  2.0873E+03
  2.5469E+03
  1.0101E+03
  2.2581E+03
  1.0268E+03
  2.3461E+03
  5.8980E+02
  2.2221E+03
  1.0079E+03
  2.2570E+03
  1.0239E+03
  7.7363E+03
  5.8360E+03
  8.2041E+03
  5.9947E+03
  4.5230E+03
  5.9551E+03
  7.7219E+03
  5.8264E+03
  8.1789E+03
  2.2428E+03
  2.3039E+03
  2.3766E+03
  2.8267E+03
  2.7082E+03
  2.2512E+03
  2.2504E+03
  2.2966E+03
  2.3727E+03
  2.1326E+03
  2.6490E+03
  1.6908E+03
  2.1129E+03
  1.3197E+03
  1.8280E+03
  2.2427E+03
  2.5926E+03
  1.7780E+03
  1.8505E+03
  2.6047E+03
  1.8656E+03
  4.0933E+03
  4.0740E+03
  1.6805E+03
  1.8668E+03
  2.5989E+03
  1.7837E+03
  2.2240E+03
  2.4568E+03
  3.8406E+03
  4.4732E+03
  1.9994E+03
  1.9824E+03
  2.7651E+03
  3.2363E+03
  3.8621E+03
  2.1975E+03
  2.3196E+03
  3.2633E+03
  2.0913E+03
  1.7755E+03
  1.7290E+03
  1.9386E+03
  2.0280E+03
  2.7522E+03
  1.7967E+03
  3.0375E+03
  1.8712E+03
  1.7750E+03
  2.8969E+03
  2.1090E+03
  2.2735E+03
  2.9418E+03
  1.5453E+03
  1.4307E+03
  1.6855E+03
  1.9834E+03
  1.6128E+03
  2.0130E+03
  2.0103E+03
  1.7578E+03
  1.8590E+03
  1.6686E+03
  2.3954E+03
  1.5996E+03
  2.4617E+03
  1.7330E+03
  1.9095E+03
  2.1417E+03
  2.7334E+03
  1.6385E+03
  1.8549E+03
  4.2908E+03
  1.3501E+03
  2.6605E+03
  1.6965E+03
  1.3861E+03
  2.3454E+03
  5.5859E+03
  1.2793E+03
  3.1820E+03
