Scalar VONMISES under NLDynamic for nodeset
189
   0.0000E+00
  0.0000E+00
  0.0000E+00
  0.0000E+00
  0.0000E+00
  0.0000E+00
  0.0000E+00
  0.0000E+00
  0.0000E+00
  0.0000E+00
  0.0000E+00
  0.0000E+00
  0.0000E+00
  0.0000E+00
  0.0000E+00
  0.0000E+00
  0.0000E+00
  0.0000E+00
  0.0000E+00
  0.0000E+00
  0.0000E+00
  0.0000E+00
  0.0000E+00
  0.0000E+00
  0.0000E+00
  0.0000E+00
  0.0000E+00
  0.0000E+00
  0.0000E+00
  0.0000E+00
  0.0000E+00
  0.0000E+00
  0.0000E+00
  0.0000E+00
  0.0000E+00
  0.0000E+00
  0.0000E+00
  0.0000E+00
  0.0000E+00
  0.0000E+00
  0.0000E+00
  0.0000E+00
  0.0000E+00
  0.0000E+00
  0.0000E+00
  0.0000E+00
  0.0000E+00
  0.0000E+00
  0.0000E+00
  0.0000E+00
  0.0000E+00
  0.0000E+00
  0.0000E+00
  0.0000E+00
  0.0000E+00
  0.0000E+00
  0.0000E+00
  0.0000E+00
  0.0000E+00
  0.0000E+00
  0.0000E+00
  0.0000E+00
  0.0000E+00
  0.0000E+00
  0.0000E+00
  0.0000E+00
  0.0000E+00
  0.0000E+00
  0.0000E+00
  0.0000E+00
  0.0000E+00
  0.0000E+00
  0.0000E+00
  0.0000E+00
  0.0000E+00
  0.0000E+00
  0.0000E+00
  0.0000E+00
  0.0000E+00
  0.0000E+00
  0.0000E+00
  0.0000E+00
  0.0000E+00
  0.0000E+00
  0.0000E+00
  0.0000E+00
  0.0000E+00
  0.0000E+00
  0.0000E+00
  0.0000E+00
  0.0000E+00
  0.0000E+00
  0.0000E+00
  0.0000E+00
  0.0000E+00
  0.0000E+00
  0.0000E+00
  0.0000E+00
  0.0000E+00
  0.0000E+00
  0.0000E+00
  0.0000E+00
  0.0000E+00
  0.0000E+00
  0.0000E+00
  0.0000E+00
  0.0000E+00
  0.0000E+00
  0.0000E+00
  0.0000E+00
  0.0000E+00
  0.0000E+00
  0.0000E+00
  0.0000E+00
  0.0000E+00
  0.0000E+00
  0.0000E+00
  0.0000E+00
  0.0000E+00
  0.0000E+00
  0.0000E+00
  0.0000E+00
  0.0000E+00
  0.0000E+00
  0.0000E+00
  0.0000E+00
  0.0000E+00
  0.0000E+00
  0.0000E+00
  0.0000E+00
  0.0000E+00
  0.0000E+00
  0.0000E+00
  0.0000E+00
  0.0000E+00
  0.0000E+00
  0.0000E+00
  0.0000E+00
  0.0000E+00
  0.0000E+00
  0.0000E+00
  0.0000E+00
  0.0000E+00
  0.0000E+00
  0.0000E+00
  0.0000E+00
  0.0000E+00
  0.0000E+00
  0.0000E+00
  0.0000E+00
  0.0000E+00
  0.0000E+00
  0.0000E+00
  0.0000E+00
  0.0000E+00
  0.0000E+00
  0.0000E+00
  0.0000E+00
  0.0000E+00
  0.0000E+00
  0.0000E+00
  0.0000E+00
  0.0000E+00
  0.0000E+00
  0.0000E+00
  0.0000E+00
  0.0000E+00
  0.0000E+00
  0.0000E+00
  0.0000E+00
  0.0000E+00
  0.0000E+00
  0.0000E+00
  0.0000E+00
  0.0000E+00
  0.0000E+00
  0.0000E+00
  0.0000E+00
  0.0000E+00
  0.0000E+00
  0.0000E+00
  0.0000E+00
  0.0000E+00
  0.0000E+00
  0.0000E+00
  0.0000E+00
  0.0000E+00
  0.0000E+00
  0.0000E+00
  0.0000E+00
   1.0000E-04
  7.9877E-22
  1.6667E-21
  2.5347E-21
  3.9938E-22
  1.4284E-21
  2.4574E-21
  0.0000E+00
  1.1901E-21
  2.3801E-21
  7.3605E-22
  1.7179E-21
  2.6997E-21
  3.6803E-22
  1.4646E-21
  2.5612E-21
  0.0000E+00
  1.2114E-21
  2.4228E-21
  9.0664E-22
  1.9005E-21
  2.8943E-21
  4.5332E-22
  1.5241E-21
  2.5948E-21
  0.0000E+00
  1.1477E-21
  2.2954E-21
  1.9741E-21
  2.9201E-21
  3.8661E-21
  9.8703E-22
  1.9785E-21
  2.9700E-21
  0.0000E+00
  1.0369E-21
  2.0738E-21
  3.4457E-21
  5.1645E-21
  6.8833E-21
  1.7229E-21
  3.4027E-21
  5.0825E-21
  0.0000E+00
  1.6408E-21
  3.2817E-21
  9.3425E-21
  1.4504E-20
  1.9666E-20
  4.6712E-21
  9.8624E-21
  1.5054E-20
  0.0000E+00
  5.2206E-21
  1.0441E-20
  3.3600E-20
  4.6646E-20
  5.9693E-20
  1.6800E-20
  3.2247E-20
  4.7694E-20
  0.0000E+00
  1.7848E-20
  3.5696E-20
  1.4006E-12
  1.4006E-12
  1.4006E-12
  1.4006E-12
  1.4006E-12
  1.4006E-12
  1.4006E-12
  1.4006E-12
  1.4006E-12
  5.6024E-12
  5.6024E-12
  5.6024E-12
  5.6024E-12
  5.6024E-12
  5.6024E-12
  5.6024E-12
  5.6024E-12
  5.6024E-12
  2.1009E-11
  2.1009E-11
  2.1009E-11
  2.1009E-11
  2.1009E-11
  2.1009E-11
  2.1009E-11
  2.1009E-11
  2.1009E-11
  8.1234E-11
  8.1234E-11
  8.1234E-11
  8.1234E-11
  8.1234E-11
  8.1234E-11
  8.1234E-11
  8.1234E-11
  8.1234E-11
  2.9973E-10
  2.9973E-10
  2.9973E-10
  2.9973E-10
  2.9973E-10
  2.9973E-10
  2.9973E-10
  2.9973E-10
  2.9973E-10
  1.1093E-09
  1.1093E-09
  1.1093E-09
  1.1093E-09
  1.1093E-09
  1.1093E-09
  1.1093E-09
  1.1093E-09
  1.1093E-09
  4.1373E-09
  4.1373E-09
  4.1373E-09
  4.1373E-09
  4.1373E-09
  4.1373E-09
  4.1373E-09
  4.1373E-09
  4.1373E-09
  1.5448E-08
  1.5448E-08
  1.5448E-08
  1.5448E-08
  1.5448E-08
  1.5448E-08
  1.5448E-08
  1.5448E-08
  1.5448E-08
  5.7668E-08
  5.7668E-08
  5.7668E-08
  5.7668E-08
  5.7668E-08
  5.7668E-08
  5.7668E-08
  5.7668E-08
  5.7668E-08
  2.1523E-07
  2.1523E-07
  2.1523E-07
  2.1523E-07
  2.1523E-07
  2.1523E-07
  2.1523E-07
  2.1523E-07
  2.1523E-07
  8.0324E-07
  8.0324E-07
  8.0324E-07
  8.0324E-07
  8.0324E-07
  8.0324E-07
  8.0324E-07
  8.0324E-07
  8.0324E-07
  2.9977E-06
  2.9977E-06
  2.9977E-06
  2.9977E-06
  2.9977E-06
  2.9977E-06
  2.9977E-06
  2.9977E-06
  2.9977E-06
  1.1188E-05
  1.1188E-05
  1.1188E-05
  1.1188E-05
  1.1188E-05
  1.1188E-05
  1.1188E-05
  1.1188E-05
  1.1188E-05
  1.7647E-05
  1.7647E-05
  1.7647E-05
  1.7647E-05
  1.7647E-05
  1.7647E-05
  1.7647E-05
  1.7647E-05
  1.7647E-05
   2.0000E-04
  3.2353E-21
  6.6896E-21
  1.0144E-20
  1.6176E-21
  5.7233E-21
  9.8290E-21
  0.0000E+00
  4.7570E-21
  9.5140E-21
  2.9634E-21
  6.8502E-21
  1.0737E-20
  1.4817E-21
  5.8397E-21
  1.0198E-20
  0.0000E+00
  4.8292E-21
  9.6585E-21
  3.8310E-21
  7.7864E-21
  1.1742E-20
  1.9155E-21
  6.1323E-21
  1.0349E-20
  0.0000E+00
  4.4781E-21
  8.9562E-21
  8.4873E-21
  1.3132E-20
  1.7777E-20
  4.2436E-21
  8.6676E-21
  1.3091E-20
  0.0000E+00
  4.2031E-21
  8.4062E-21
  2.0570E-20
  3.0771E-20
  4.0973E-20
  1.0285E-20
  2.0297E-20
  3.0310E-20
  0.0000E+00
  9.8232E-21
  1.9646E-20
  6.8640E-20
  1.0002E-19
  1.3139E-19
  3.4320E-20
  6.8264E-20
  1.0221E-19
  0.0000E+00
  3.6511E-20
  7.3022E-20
  2.5419E-19
  3.4742E-19
  4.4066E-19
  1.2709E-19
  2.3931E-19
  3.5153E-19
  0.0000E+00
  1.3121E-19
  2.6241E-19
  5.6024E-12
  5.6024E-12
  5.6024E-12
  5.6024E-12
  5.6024E-12
  5.6024E-12
  5.6024E-12
  5.6024E-12
  5.6024E-12
  2.2409E-11
  2.2409E-11
  2.2409E-11
  2.2409E-11
  2.2409E-11
  2.2409E-11
  2.2409E-11
  2.2409E-11
  2.2409E-11
  8.4035E-11
  8.4035E-11
  8.4035E-11
  8.4035E-11
  8.4035E-11
  8.4035E-11
  8.4035E-11
  8.4035E-11
  8.4035E-11
  3.2494E-10
  3.2494E-10
  3.2494E-10
  3.2494E-10
  3.2494E-10
  3.2494E-10
  3.2494E-10
  3.2494E-10
  3.2494E-10
  1.1989E-09
  1.1989E-09
  1.1989E-09
  1.1989E-09
  1.1989E-09
  1.1989E-09
  1.1989E-09
  1.1989E-09
  1.1989E-09
  4.4371E-09
  4.4371E-09
  4.4371E-09
  4.4371E-09
  4.4371E-09
  4.4371E-09
  4.4371E-09
  4.4371E-09
  4.4371E-09
  1.6549E-08
  1.6549E-08
  1.6549E-08
  1.6549E-08
  1.6549E-08
  1.6549E-08
  1.6549E-08
  1.6549E-08
  1.6549E-08
  6.1794E-08
  6.1794E-08
  6.1794E-08
  6.1794E-08
  6.1794E-08
  6.1794E-08
  6.1794E-08
  6.1794E-08
  6.1794E-08
  2.3067E-07
  2.3067E-07
  2.3067E-07
  2.3067E-07
  2.3067E-07
  2.3067E-07
  2.3067E-07
  2.3067E-07
  2.3067E-07
  8.6091E-07
  8.6091E-07
  8.6091E-07
  8.6091E-07
  8.6091E-07
  8.6091E-07
  8.6091E-07
  8.6091E-07
  8.6091E-07
  3.2130E-06
  3.2130E-06
  3.2130E-06
  3.2130E-06
  3.2130E-06
  3.2130E-06
  3.2130E-06
  3.2130E-06
  3.2130E-06
  1.1991E-05
  1.1991E-05
  1.1991E-05
  1.1991E-05
  1.1991E-05
  1.1991E-05
  1.1991E-05
  1.1991E-05
  1.1991E-05
  4.4750E-05
  4.4750E-05
  4.4750E-05
  4.4750E-05
  4.4750E-05
  4.4750E-05
  4.4750E-05
  4.4750E-05
  4.4750E-05
  7.0587E-05
  7.0587E-05
  7.0587E-05
  7.0587E-05
  7.0587E-05
  7.0587E-05
  7.0587E-05
  7.0587E-05
  7.0587E-05
   3.0000E-04
  7.4339E-21
  1.5141E-20
  2.2848E-20
  3.7170E-21
  1.2916E-20
  2.2115E-20
  0.0000E+00
  1.0691E-20
  2.1381E-20
  6.7660E-21
  1.5380E-20
  2.3995E-20
  3.3830E-21
  1.3096E-20
  2.2809E-20
  0.0000E+00
  1.0812E-20
  2.1624E-20
  9.9507E-21
  1.8677E-20
  2.7404E-20
  4.9754E-21
  1.4233E-20
  2.3490E-20
  0.0000E+00
  9.7885E-21
  1.9577E-20
  2.4183E-20
  3.7698E-20
  5.1213E-20
  1.2091E-20
  2.4499E-20
  3.6906E-20
  0.0000E+00
  1.1300E-20
  2.2600E-20
  7.5564E-20
  1.1085E-19
  1.4614E-19
  3.7782E-20
  7.3814E-20
  1.0985E-19
  0.0000E+00
  3.6778E-20
  7.3556E-20
  2.7632E-19
  3.8917E-19
  5.0201E-19
  1.3816E-19
  2.6605E-19
  3.9393E-19
  0.0000E+00
  1.4293E-19
  2.8585E-19
  1.0303E-18
  1.4000E-18
  1.7697E-18
  5.1513E-19
  9.6194E-19
  1.4088E-18
  0.0000E+00
  5.2390E-19
  1.0478E-18
  1.2605E-11
  1.2605E-11
  1.2605E-11
  1.2605E-11
  1.2605E-11
  1.2605E-11
  1.2605E-11
  1.2605E-11
  1.2605E-11
  5.0421E-11
  5.0421E-11
  5.0421E-11
  5.0421E-11
  5.0421E-11
  5.0421E-11
  5.0421E-11
  5.0421E-11
  5.0421E-11
  1.8908E-10
  1.8908E-10
  1.8908E-10
  1.8908E-10
  1.8908E-10
  1.8908E-10
  1.8908E-10
  1.8908E-10
  1.8908E-10
  7.3111E-10
  7.3111E-10
  7.3111E-10
  7.3111E-10
  7.3111E-10
  7.3111E-10
  7.3111E-10
  7.3111E-10
  7.3111E-10
  2.6975E-09
  2.6975E-09
  2.6975E-09
  2.6975E-09
  2.6975E-09
  2.6975E-09
  2.6975E-09
  2.6975E-09
  2.6975E-09
  9.9834E-09
  9.9834E-09
  9.9834E-09
  9.9834E-09
  9.9834E-09
  9.9834E-09
  9.9834E-09
  9.9834E-09
  9.9834E-09
  3.7236E-08
  3.7236E-08
  3.7236E-08
  3.7236E-08
  3.7236E-08
  3.7236E-08
  3.7236E-08
  3.7236E-08
  3.7236E-08
  1.3904E-07
  1.3904E-07
  1.3904E-07
  1.3904E-07
  1.3904E-07
  1.3904E-07
  1.3904E-07
  1.3904E-07
  1.3904E-07
  5.1901E-07
  5.1901E-07
  5.1901E-07
  5.1901E-07
  5.1901E-07
  5.1901E-07
  5.1901E-07
  5.1901E-07
  5.1901E-07
  1.9371E-06
  1.9371E-06
  1.9371E-06
  1.9371E-06
  1.9371E-06
  1.9371E-06
  1.9371E-06
  1.9371E-06
  1.9371E-06
  7.2291E-06
  7.2291E-06
  7.2291E-06
  7.2291E-06
  7.2291E-06
  7.2291E-06
  7.2291E-06
  7.2291E-06
  7.2291E-06
  2.6979E-05
  2.6979E-05
  2.6979E-05
  2.6979E-05
  2.6979E-05
  2.6979E-05
  2.6979E-05
  2.6979E-05
  2.6979E-05
  1.0069E-04
  1.0069E-04
  1.0069E-04
  1.0069E-04
  1.0069E-04
  1.0069E-04
  1.0069E-04
  1.0069E-04
  1.0069E-04
  1.5882E-04
  1.5882E-04
  1.5882E-04
  1.5882E-04
  1.5882E-04
  1.5882E-04
  1.5882E-04
  1.5882E-04
  1.5882E-04
   4.0000E-04
  1.3608E-20
  2.7147E-20
  4.0685E-20
  6.8041E-21
  2.3060E-20
  3.9317E-20
  0.0000E+00
  1.8974E-20
  3.7949E-20
  1.2383E-20
  2.7438E-20
  4.2493E-20
  6.1916E-21
  2.3278E-20
  4.0365E-20
  0.0000E+00
  1.9118E-20
  3.8236E-20
  2.1706E-20
  3.7519E-20
  5.3332E-20
  1.0853E-20
  2.7409E-20
  4.3965E-20
  0.0000E+00
  1.7299E-20
  3.4598E-20
  6.1580E-20
  9.2678E-20
  1.2378E-19
  3.0790E-20
  6.0112E-20
  8.9434E-20
  0.0000E+00
  2.7546E-20
  5.5091E-20
  2.1389E-19
  3.0624E-19
  3.9858E-19
  1.0695E-19
  2.0569E-19
  3.0444E-19
  0.0000E+00
  1.0515E-19
  2.1029E-19
  7.9904E-19
  1.1075E-18
  1.4159E-18
  3.9952E-19
  7.5774E-19
  1.1160E-18
  0.0000E+00
  4.0798E-19
  8.1596E-19
  2.9833E-18
  4.0455E-18
  5.1077E-18
  1.4916E-18
  2.7764E-18
  4.0612E-18
  0.0000E+00
  1.5074E-18
  3.0147E-18
  2.2409E-11
  2.2409E-11
  2.2409E-11
  2.2409E-11
  2.2409E-11
  2.2409E-11
  2.2409E-11
  2.2409E-11
  2.2409E-11
  8.9638E-11
  8.9638E-11
  8.9638E-11
  8.9638E-11
  8.9638E-11
  8.9638E-11
  8.9638E-11
  8.9638E-11
  8.9638E-11
  3.3614E-10
  3.3614E-10
  3.3614E-10
  3.3614E-10
  3.3614E-10
  3.3614E-10
  3.3614E-10
  3.3614E-10
  3.3614E-10
  1.2997E-09
  1.2997E-09
  1.2997E-09
  1.2997E-09
  1.2997E-09
  1.2997E-09
  1.2997E-09
  1.2997E-09
  1.2997E-09
  4.7956E-09
  4.7956E-09
  4.7956E-09
  4.7956E-09
  4.7956E-09
  4.7956E-09
  4.7956E-09
  4.7956E-09
  4.7956E-09
  1.7748E-08
  1.7748E-08
  1.7748E-08
  1.7748E-08
  1.7748E-08
  1.7748E-08
  1.7748E-08
  1.7748E-08
  1.7748E-08
  6.6197E-08
  6.6197E-08
  6.6197E-08
  6.6197E-08
  6.6197E-08
  6.6197E-08
  6.6197E-08
  6.6197E-08
  6.6197E-08
  2.4718E-07
  2.4718E-07
  2.4718E-07
  2.4718E-07
  2.4718E-07
  2.4718E-07
  2.4718E-07
  2.4718E-07
  2.4718E-07
  9.2269E-07
  9.2269E-07
  9.2269E-07
  9.2269E-07
  9.2269E-07
  9.2269E-07
  9.2269E-07
  9.2269E-07
  9.2269E-07
  3.4437E-06
  3.4437E-06
  3.4437E-06
  3.4437E-06
  3.4437E-06
  3.4437E-06
  3.4437E-06
  3.4437E-06
  3.4437E-06
  1.2852E-05
  1.2852E-05
  1.2852E-05
  1.2852E-05
  1.2852E-05
  1.2852E-05
  1.2852E-05
  1.2852E-05
  1.2852E-05
  4.7963E-05
  4.7963E-05
  4.7963E-05
  4.7963E-05
  4.7963E-05
  4.7963E-05
  4.7963E-05
  4.7963E-05
  4.7963E-05
  1.7900E-04
  1.7900E-04
  1.7900E-04
  1.7900E-04
  1.7900E-04
  1.7900E-04
  1.7900E-04
  1.7900E-04
  1.7900E-04
  2.8235E-04
  2.8235E-04
  2.8235E-04
  2.8235E-04
  2.8235E-04
  2.8235E-04
  2.8235E-04
  2.8235E-04
  2.8235E-04
   5.0000E-04
  2.2064E-20
  4.2892E-20
  6.3720E-20
  1.1032E-20
  3.6239E-20
  6.1446E-20
  0.0000E+00
  2.9586E-20
  5.9172E-20
  2.0557E-20
  4.3567E-20
  6.6576E-20
  1.0279E-20
  3.6660E-20
  6.3042E-20
  0.0000E+00
  2.9754E-20
  5.9509E-20
  4.3198E-20
  6.9769E-20
  9.6339E-20
  2.1599E-20
  4.9114E-20
  7.6628E-20
  0.0000E+00
  2.8459E-20
  5.6918E-20
  1.3794E-19
  2.0127E-19
  2.6460E-19
  6.8969E-20
  1.3122E-19
  1.9348E-19
  0.0000E+00
  6.1180E-20
  1.2236E-19
  4.9839E-19
  7.0159E-19
  9.0479E-19
  2.4920E-19
  4.7396E-19
  6.9872E-19
  0.0000E+00
  2.4632E-19
  4.9264E-19
  1.8690E-18
  2.5695E-18
  3.2701E-18
  9.3448E-19
  1.7587E-18
  2.5829E-18
  0.0000E+00
  9.4788E-19
  1.8958E-18
  6.9793E-18
  9.4572E-18
  1.1935E-17
  3.4897E-18
  6.4861E-18
  9.4826E-18
  0.0000E+00
  3.5151E-18
  7.0303E-18
  3.5015E-11
  3.5015E-11
  3.5015E-11
  3.5015E-11
  3.5015E-11
  3.5015E-11
  3.5015E-11
  3.5015E-11
  3.5015E-11
  1.4006E-10
  1.4006E-10
  1.4006E-10
  1.4006E-10
  1.4006E-10
  1.4006E-10
  1.4006E-10
  1.4006E-10
  1.4006E-10
  5.2522E-10
  5.2522E-10
  5.2522E-10
  5.2522E-10
  5.2522E-10
  5.2522E-10
  5.2522E-10
  5.2522E-10
  5.2522E-10
  2.0309E-09
  2.0309E-09
  2.0309E-09
  2.0309E-09
  2.0309E-09
  2.0309E-09
  2.0309E-09
  2.0309E-09
  2.0309E-09
  7.4932E-09
  7.4932E-09
  7.4932E-09
  7.4932E-09
  7.4932E-09
  7.4932E-09
  7.4932E-09
  7.4932E-09
  7.4932E-09
  2.7732E-08
  2.7732E-08
  2.7732E-08
  2.7732E-08
  2.7732E-08
  2.7732E-08
  2.7732E-08
  2.7732E-08
  2.7732E-08
  1.0343E-07
  1.0343E-07
  1.0343E-07
  1.0343E-07
  1.0343E-07
  1.0343E-07
  1.0343E-07
  1.0343E-07
  1.0343E-07
  3.8621E-07
  3.8621E-07
  3.8621E-07
  3.8621E-07
  3.8621E-07
  3.8621E-07
  3.8621E-07
  3.8621E-07
  3.8621E-07
  1.4417E-06
  1.4417E-06
  1.4417E-06
  1.4417E-06
  1.4417E-06
  1.4417E-06
  1.4417E-06
  1.4417E-06
  1.4417E-06
  5.3807E-06
  5.3807E-06
  5.3807E-06
  5.3807E-06
  5.3807E-06
  5.3807E-06
  5.3807E-06
  5.3807E-06
  5.3807E-06
  2.0081E-05
  2.0081E-05
  2.0081E-05
  2.0081E-05
  2.0081E-05
  2.0081E-05
  2.0081E-05
  2.0081E-05
  2.0081E-05
  7.4943E-05
  7.4943E-05
  7.4943E-05
  7.4943E-05
  7.4943E-05
  7.4943E-05
  7.4943E-05
  7.4943E-05
  7.4943E-05
  2.7969E-04
  2.7969E-04
  2.7969E-04
  2.7969E-04
  2.7969E-04
  2.7969E-04
  2.7969E-04
  2.7969E-04
  2.7969E-04
  4.4117E-04
  4.4117E-04
  4.4117E-04
  4.4117E-04
  4.4117E-04
  4.4117E-04
  4.4117E-04
  4.4117E-04
  4.4117E-04
   6.0000E-04
  3.3205E-20
  6.2629E-20
  9.2053E-20
  1.6602E-20
  5.2565E-20
  8.8527E-20
  0.0000E+00
  4.2501E-20
  8.5002E-20
  3.3152E-20
  6.5124E-20
  9.7096E-20
  1.6576E-20
  5.3981E-20
  9.1386E-20
  0.0000E+00
  4.2839E-20
  8.5677E-20
  8.0686E-20
  1.2273E-19
  1.6477E-19
  4.0343E-20
  8.4410E-20
  1.2848E-19
  0.0000E+00
  4.6094E-20
  9.2187E-20
  2.7473E-19
  3.9241E-19
  5.1009E-19
  1.3737E-19
  2.5789E-19
  3.7841E-19
  0.0000E+00
  1.2337E-19
  2.4673E-19
  1.0089E-18
  1.4050E-18
  1.8011E-18
  5.0446E-19
  9.5262E-19
  1.4008E-18
  0.0000E+00
  5.0023E-19
  1.0005E-18
  3.7840E-18
  5.1786E-18
  6.5732E-18
  1.8920E-18
  3.5450E-18
  5.1980E-18
  0.0000E+00
  1.9114E-18
  3.8229E-18
  1.4130E-17
  1.9140E-17
  2.4150E-17
  7.0652E-18
  1.3121E-17
  1.9177E-17
  0.0000E+00
  7.1025E-18
  1.4205E-17
  5.0421E-11
  5.0421E-11
  5.0421E-11
  5.0421E-11
  5.0421E-11
  5.0421E-11
  5.0421E-11
  5.0421E-11
  5.0421E-11
  2.0168E-10
  2.0168E-10
  2.0168E-10
  2.0168E-10
  2.0168E-10
  2.0168E-10
  2.0168E-10
  2.0168E-10
  2.0168E-10
  7.5632E-10
  7.5632E-10
  7.5632E-10
  7.5632E-10
  7.5632E-10
  7.5632E-10
  7.5632E-10
  7.5632E-10
  7.5632E-10
  2.9244E-09
  2.9244E-09
  2.9244E-09
  2.9244E-09
  2.9244E-09
  2.9244E-09
  2.9244E-09
  2.9244E-09
  2.9244E-09
  1.0790E-08
  1.0790E-08
  1.0790E-08
  1.0790E-08
  1.0790E-08
  1.0790E-08
  1.0790E-08
  1.0790E-08
  1.0790E-08
  3.9934E-08
  3.9934E-08
  3.9934E-08
  3.9934E-08
  3.9934E-08
  3.9934E-08
  3.9934E-08
  3.9934E-08
  3.9934E-08
  1.4894E-07
  1.4894E-07
  1.4894E-07
  1.4894E-07
  1.4894E-07
  1.4894E-07
  1.4894E-07
  1.4894E-07
  1.4894E-07
  5.5615E-07
  5.5615E-07
  5.5615E-07
  5.5615E-07
  5.5615E-07
  5.5615E-07
  5.5615E-07
  5.5615E-07
  5.5615E-07
  2.0760E-06
  2.0760E-06
  2.0760E-06
  2.0760E-06
  2.0760E-06
  2.0760E-06
  2.0760E-06
  2.0760E-06
  2.0760E-06
  7.7482E-06
  7.7482E-06
  7.7482E-06
  7.7482E-06
  7.7482E-06
  7.7482E-06
  7.7482E-06
  7.7482E-06
  7.7482E-06
  2.8916E-05
  2.8916E-05
  2.8916E-05
  2.8916E-05
  2.8916E-05
  2.8916E-05
  2.8916E-05
  2.8916E-05
  2.8916E-05
  1.0792E-04
  1.0792E-04
  1.0792E-04
  1.0792E-04
  1.0792E-04
  1.0792E-04
  1.0792E-04
  1.0792E-04
  1.0792E-04
  4.0275E-04
  4.0275E-04
  4.0275E-04
  4.0275E-04
  4.0275E-04
  4.0275E-04
  4.0275E-04
  4.0275E-04
  4.0275E-04
  6.3528E-04
  6.3528E-04
  6.3528E-04
  6.3528E-04
  6.3528E-04
  6.3528E-04
  6.3528E-04
  6.3528E-04
  6.3528E-04
   7.0000E-04
  4.7543E-20
  8.6690E-20
  1.2584E-19
  2.3772E-20
  7.2191E-20
  1.2061E-19
  0.0000E+00
  5.7692E-20
  1.1538E-19
  5.2022E-20
  9.3856E-20
  1.3569E-19
  2.6011E-20
  7.6268E-20
  1.2652E-19
  0.0000E+00
  5.8679E-20
  1.1736E-19
  1.4135E-19
  2.0560E-19
  2.6985E-19
  7.0675E-20
  1.3967E-19
  2.0867E-19
  0.0000E+00
  7.3748E-20
  1.4750E-19
  4.9817E-19
  7.0171E-19
  9.0525E-19
  2.4908E-19
  4.6470E-19
  6.8031E-19
  0.0000E+00
  2.2768E-19
  4.5537E-19
  1.8431E-18
  2.5488E-18
  3.2545E-18
  9.2156E-19
  1.7323E-18
  2.5431E-18
  0.0000E+00
  9.1583E-19
  1.8317E-18
  6.9089E-18
  9.4285E-18
  1.1948E-17
  3.4545E-18
  6.4549E-18
  9.4554E-18
  0.0000E+00
  3.4814E-18
  6.9627E-18
  2.5797E-17
  3.4937E-17
  4.4076E-17
  1.2899E-17
  2.3944E-17
  3.4989E-17
  0.0000E+00
  1.2951E-17
  2.5903E-17
  6.8629E-11
  6.8629E-11
  6.8629E-11
  6.8629E-11
  6.8629E-11
  6.8629E-11
  6.8629E-11
  6.8629E-11
  6.8629E-11
  2.7452E-10
  2.7452E-10
  2.7452E-10
  2.7452E-10
  2.7452E-10
  2.7452E-10
  2.7452E-10
  2.7452E-10
  2.7452E-10
  1.0294E-09
  1.0294E-09
  1.0294E-09
  1.0294E-09
  1.0294E-09
  1.0294E-09
  1.0294E-09
  1.0294E-09
  1.0294E-09
  3.9805E-09
  3.9805E-09
  3.9805E-09
  3.9805E-09
  3.9805E-09
  3.9805E-09
  3.9805E-09
  3.9805E-09
  3.9805E-09
  1.4687E-08
  1.4687E-08
  1.4687E-08
  1.4687E-08
  1.4687E-08
  1.4687E-08
  1.4687E-08
  1.4687E-08
  1.4687E-08
  5.4354E-08
  5.4354E-08
  5.4354E-08
  5.4354E-08
  5.4354E-08
  5.4354E-08
  5.4354E-08
  5.4354E-08
  5.4354E-08
  2.0273E-07
  2.0273E-07
  2.0273E-07
  2.0273E-07
  2.0273E-07
  2.0273E-07
  2.0273E-07
  2.0273E-07
  2.0273E-07
  7.5698E-07
  7.5698E-07
  7.5698E-07
  7.5698E-07
  7.5698E-07
  7.5698E-07
  7.5698E-07
  7.5698E-07
  7.5698E-07
  2.8257E-06
  2.8257E-06
  2.8257E-06
  2.8257E-06
  2.8257E-06
  2.8257E-06
  2.8257E-06
  2.8257E-06
  2.8257E-06
  1.0546E-05
  1.0546E-05
  1.0546E-05
  1.0546E-05
  1.0546E-05
  1.0546E-05
  1.0546E-05
  1.0546E-05
  1.0546E-05
  3.9358E-05
  3.9358E-05
  3.9358E-05
  3.9358E-05
  3.9358E-05
  3.9358E-05
  3.9358E-05
  3.9358E-05
  3.9358E-05
  1.4689E-04
  1.4689E-04
  1.4689E-04
  1.4689E-04
  1.4689E-04
  1.4689E-04
  1.4689E-04
  1.4689E-04
  1.4689E-04
  5.4819E-04
  5.4819E-04
  5.4819E-04
  5.4819E-04
  5.4819E-04
  5.4819E-04
  5.4819E-04
  5.4819E-04
  5.4819E-04
  8.6469E-04
  8.6469E-04
  8.6469E-04
  8.6469E-04
  8.6469E-04
  8.6469E-04
  8.6469E-04
  8.6469E-04
  8.6469E-04
   8.0000E-04
  6.5703E-20
  1.1550E-19
  1.6529E-19
  3.2851E-20
  9.5314E-20
  1.5778E-19
  0.0000E+00
  7.5132E-20
  1.5026E-19
  7.9195E-20
  1.3210E-19
  1.8501E-19
  3.9598E-20
  1.0497E-19
  1.7035E-19
  0.0000E+00
  7.7846E-20
  1.5569E-19
  2.3346E-19
  3.2944E-19
  4.2541E-19
  1.1673E-19
  2.2244E-19
  3.2815E-19
  0.0000E+00
  1.1544E-19
  2.3089E-19
  8.3915E-19
  1.1711E-18
  1.5030E-18
  4.1958E-19
  7.8042E-19
  1.1413E-18
  0.0000E+00
  3.8976E-19
  7.7951E-19
  3.1164E-18
  4.2892E-18
  5.4620E-18
  1.5582E-18
  2.9200E-18
  4.2818E-18
  0.0000E+00
  1.5508E-18
  3.1017E-18
  1.1674E-17
  1.5902E-17
  2.0130E-17
  5.8370E-18
  1.0888E-17
  1.5938E-17
  0.0000E+00
  5.8730E-18
  1.1746E-17
  4.3586E-17
  5.9023E-17
  7.4459E-17
  2.1793E-17
  4.0444E-17
  5.9095E-17
  0.0000E+00
  2.1865E-17
  4.3731E-17
  8.9638E-11
  8.9638E-11
  8.9638E-11
  8.9638E-11
  8.9638E-11
  8.9638E-11
  8.9638E-11
  8.9638E-11
  8.9638E-11
  3.5855E-10
  3.5855E-10
  3.5855E-10
  3.5855E-10
  3.5855E-10
  3.5855E-10
  3.5855E-10
  3.5855E-10
  3.5855E-10
  1.3446E-09
  1.3446E-09
  1.3446E-09
  1.3446E-09
  1.3446E-09
  1.3446E-09
  1.3446E-09
  1.3446E-09
  1.3446E-09
  5.1990E-09
  5.1990E-09
  5.1990E-09
  5.1990E-09
  5.1990E-09
  5.1990E-09
  5.1990E-09
  5.1990E-09
  5.1990E-09
  1.9182E-08
  1.9182E-08
  1.9182E-08
  1.9182E-08
  1.9182E-08
  1.9182E-08
  1.9182E-08
  1.9182E-08
  1.9182E-08
  7.0993E-08
  7.0993E-08
  7.0993E-08
  7.0993E-08
  7.0993E-08
  7.0993E-08
  7.0993E-08
  7.0993E-08
  7.0993E-08
  2.6479E-07
  2.6479E-07
  2.6479E-07
  2.6479E-07
  2.6479E-07
  2.6479E-07
  2.6479E-07
  2.6479E-07
  2.6479E-07
  9.8870E-07
  9.8870E-07
  9.8870E-07
  9.8870E-07
  9.8870E-07
  9.8870E-07
  9.8870E-07
  9.8870E-07
  9.8870E-07
  3.6907E-06
  3.6907E-06
  3.6907E-06
  3.6907E-06
  3.6907E-06
  3.6907E-06
  3.6907E-06
  3.6907E-06
  3.6907E-06
  1.3774E-05
  1.3774E-05
  1.3774E-05
  1.3774E-05
  1.3774E-05
  1.3774E-05
  1.3774E-05
  1.3774E-05
  1.3774E-05
  5.1407E-05
  5.1407E-05
  5.1407E-05
  5.1407E-05
  5.1407E-05
  5.1407E-05
  5.1407E-05
  5.1407E-05
  5.1407E-05
  1.9185E-04
  1.9185E-04
  1.9185E-04
  1.9185E-04
  1.9185E-04
  1.9185E-04
  1.9185E-04
  1.9185E-04
  1.9185E-04
  7.1600E-04
  7.1600E-04
  7.1600E-04
  7.1600E-04
  7.1600E-04
  7.1600E-04
  7.1600E-04
  7.1600E-04
  7.1600E-04
  1.1294E-03
  1.1294E-03
  1.1294E-03
  1.1294E-03
  1.1294E-03
  1.1294E-03
  1.1294E-03
  1.1294E-03
  1.1294E-03
   9.0000E-04
  8.8425E-20
  1.4957E-19
  2.1071E-19
  4.4212E-20
  1.2218E-19
  2.0016E-19
  0.0000E+00
  9.4800E-20
  1.8960E-19
  1.1706E-19
  1.8290E-19
  2.4874E-19
  5.8530E-20
  1.4206E-19
  2.2559E-19
  0.0000E+00
  1.0122E-19
  2.0244E-19
  3.6657E-19
  5.0724E-19
  6.4791E-19
  1.8329E-19
  3.4155E-19
  4.9982E-19
  0.0000E+00
  1.7587E-19
  3.5173E-19
  1.3334E-18
  1.8489E-18
  2.3643E-18
  6.6668E-19
  1.2381E-18
  1.8096E-18
  0.0000E+00
  6.2743E-19
  1.2549E-18
  4.9618E-18
  6.8064E-18
  8.6509E-18
  2.4809E-18
  4.6390E-18
  6.7972E-18
  0.0000E+00
  2.4717E-18
  4.9435E-18
  1.8576E-17
  2.5272E-17
  3.1967E-17
  9.2882E-18
  1.7303E-17
  2.5318E-17
  0.0000E+00
  9.3346E-18
  1.8669E-17
  6.9353E-17
  9.3907E-17
  1.1846E-16
  3.4677E-17
  6.4339E-17
  9.4002E-17
  0.0000E+00
  3.4771E-17
  6.9541E-17
  1.1345E-10
  1.1345E-10
  1.1345E-10
  1.1345E-10
  1.1345E-10
  1.1345E-10
  1.1345E-10
  1.1345E-10
  1.1345E-10
  4.5379E-10
  4.5379E-10
  4.5379E-10
  4.5379E-10
  4.5379E-10
  4.5379E-10
  4.5379E-10
  4.5379E-10
  4.5379E-10
  1.7017E-09
  1.7017E-09
  1.7017E-09
  1.7017E-09
  1.7017E-09
  1.7017E-09
  1.7017E-09
  1.7017E-09
  1.7017E-09
  6.5800E-09
  6.5800E-09
  6.5800E-09
  6.5800E-09
  6.5800E-09
  6.5800E-09
  6.5800E-09
  6.5800E-09
  6.5800E-09
  2.4278E-08
  2.4278E-08
  2.4278E-08
  2.4278E-08
  2.4278E-08
  2.4278E-08
  2.4278E-08
  2.4278E-08
  2.4278E-08
  8.9851E-08
  8.9851E-08
  8.9851E-08
  8.9851E-08
  8.9851E-08
  8.9851E-08
  8.9851E-08
  8.9851E-08
  8.9851E-08
  3.3512E-07
  3.3512E-07
  3.3512E-07
  3.3512E-07
  3.3512E-07
  3.3512E-07
  3.3512E-07
  3.3512E-07
  3.3512E-07
  1.2513E-06
  1.2513E-06
  1.2513E-06
  1.2513E-06
  1.2513E-06
  1.2513E-06
  1.2513E-06
  1.2513E-06
  1.2513E-06
  4.6711E-06
  4.6710E-06
  4.6710E-06
  4.6711E-06
  4.6711E-06
  4.6710E-06
  4.6711E-06
  4.6711E-06
  4.6711E-06
  1.7433E-05
  1.7433E-05
  1.7433E-05
  1.7433E-05
  1.7433E-05
  1.7433E-05
  1.7433E-05
  1.7433E-05
  1.7433E-05
  6.5062E-05
  6.5062E-05
  6.5062E-05
  6.5062E-05
  6.5062E-05
  6.5062E-05
  6.5062E-05
  6.5062E-05
  6.5062E-05
  2.4281E-04
  2.4281E-04
  2.4281E-04
  2.4281E-04
  2.4281E-04
  2.4281E-04
  2.4281E-04
  2.4281E-04
  2.4281E-04
  9.0619E-04
  9.0619E-04
  9.0619E-04
  9.0619E-04
  9.0619E-04
  9.0619E-04
  9.0619E-04
  9.0619E-04
  9.0619E-04
  1.4294E-03
  1.4294E-03
  1.4294E-03
  1.4294E-03
  1.4294E-03
  1.4294E-03
  1.4294E-03
  1.4294E-03
  1.4294E-03
   1.0000E-03
  1.1657E-19
  1.8955E-19
  2.6252E-19
  5.8285E-20
  1.5311E-19
  2.4794E-19
  0.0000E+00
  1.1668E-19
  2.3336E-19
  1.6831E-19
  2.4983E-19
  3.3136E-19
  8.4153E-20
  1.8990E-19
  2.9564E-19
  0.0000E+00
  1.2996E-19
  2.5992E-19
  5.5151E-19
  7.5388E-19
  9.5626E-19
  2.7575E-19
  5.0717E-19
  7.3858E-19
  0.0000E+00
  2.6045E-19
  5.2090E-19
  2.0213E-18
  2.7898E-18
  3.5584E-18
  1.0107E-18
  1.8754E-18
  2.7401E-18
  0.0000E+00
  9.6094E-19
  1.9219E-18
  7.5306E-18
  1.0305E-17
  1.3079E-17
  3.7653E-18
  7.0295E-18
  1.0294E-17
  0.0000E+00
  3.7541E-18
  7.5082E-18
  2.8180E-17
  3.8301E-17
  4.8422E-17
  1.4090E-17
  2.6225E-17
  3.8359E-17
  0.0000E+00
  1.4148E-17
  2.8296E-17
  1.0520E-16
  1.4244E-16
  1.7968E-16
  5.2601E-17
  9.7580E-17
  1.4256E-16
  0.0000E+00
  5.2720E-17
  1.0544E-16
  1.4006E-10
  1.4006E-10
  1.4006E-10
  1.4006E-10
  1.4006E-10
  1.4006E-10
  1.4006E-10
  1.4006E-10
  1.4006E-10
  5.6024E-10
  5.6024E-10
  5.6024E-10
  5.6024E-10
  5.6024E-10
  5.6024E-10
  5.6024E-10
  5.6024E-10
  5.6024E-10
  2.1009E-09
  2.1009E-09
  2.1009E-09
  2.1009E-09
  2.1009E-09
  2.1009E-09
  2.1009E-09
  2.1009E-09
  2.1009E-09
  8.1234E-09
  8.1234E-09
  8.1234E-09
  8.1234E-09
  8.1234E-09
  8.1234E-09
  8.1234E-09
  8.1234E-09
  8.1234E-09
  2.9973E-08
  2.9973E-08
  2.9973E-08
  2.9973E-08
  2.9973E-08
  2.9973E-08
  2.9973E-08
  2.9973E-08
  2.9973E-08
  1.1093E-07
  1.1093E-07
  1.1093E-07
  1.1093E-07
  1.1093E-07
  1.1093E-07
  1.1093E-07
  1.1093E-07
  1.1093E-07
  4.1373E-07
  4.1373E-07
  4.1373E-07
  4.1373E-07
  4.1373E-07
  4.1373E-07
  4.1373E-07
  4.1373E-07
  4.1373E-07
  1.5448E-06
  1.5448E-06
  1.5448E-06
  1.5448E-06
  1.5448E-06
  1.5448E-06
  1.5448E-06
  1.5448E-06
  1.5448E-06
  5.7667E-06
  5.7667E-06
  5.7667E-06
  5.7667E-06
  5.7667E-06
  5.7667E-06
  5.7667E-06
  5.7667E-06
  5.7667E-06
  2.1523E-05
  2.1523E-05
  2.1523E-05
  2.1523E-05
  2.1523E-05
  2.1523E-05
  2.1523E-05
  2.1523E-05
  2.1523E-05
  8.0323E-05
  8.0323E-05
  8.0323E-05
  8.0323E-05
  8.0323E-05
  8.0323E-05
  8.0323E-05
  8.0323E-05
  8.0323E-05
  2.9977E-04
  2.9977E-04
  2.9977E-04
  2.9977E-04
  2.9977E-04
  2.9977E-04
  2.9977E-04
  2.9977E-04
  2.9977E-04
  1.1188E-03
  1.1188E-03
  1.1188E-03
  1.1188E-03
  1.1188E-03
  1.1188E-03
  1.1188E-03
  1.1188E-03
  1.1188E-03
  1.7647E-03
  1.7647E-03
  1.7647E-03
  1.7647E-03
  1.7647E-03
  1.7647E-03
  1.7647E-03
  1.7647E-03
  1.7647E-03
   1.1000E-03
  1.5112E-19
  2.3619E-19
  3.2126E-19
  7.5559E-20
  1.8848E-19
  3.0140E-19
  0.0000E+00
  1.4077E-19
  2.8154E-19
  2.3593E-19
  3.3694E-19
  4.3795E-19
  1.1797E-19
  2.5121E-19
  3.8445E-19
  0.0000E+00
  1.6548E-19
  3.3095E-19
  8.0030E-19
  1.0859E-18
  1.3715E-18
  4.0015E-19
  7.3063E-19
  1.0611E-18
  0.0000E+00
  3.7536E-19
  7.5071E-19
  2.9481E-18
  4.0551E-18
  5.1622E-18
  1.4741E-18
  2.7340E-18
  3.9939E-18
  0.0000E+00
  1.4128E-18
  2.8257E-18
  1.0991E-17
  1.5013E-17
  1.9034E-17
  5.4957E-18
  1.0247E-17
  1.4999E-17
  0.0000E+00
  5.4822E-18
  1.0964E-17
  4.1115E-17
  5.5842E-17
  7.0568E-17
  2.0557E-17
  3.8235E-17
  5.5912E-17
  0.0000E+00
  2.0628E-17
  4.1255E-17
  1.5348E-16
  2.0780E-16
  2.6212E-16
  7.6741E-17
  1.4234E-16
  2.0794E-16
  0.0000E+00
  7.6886E-17
  1.5377E-16
  1.6947E-10
  1.6947E-10
  1.6947E-10
  1.6947E-10
  1.6947E-10
  1.6947E-10
  1.6947E-10
  1.6947E-10
  1.6947E-10
  6.7789E-10
  6.7789E-10
  6.7789E-10
  6.7789E-10
  6.7789E-10
  6.7789E-10
  6.7789E-10
  6.7789E-10
  6.7789E-10
  2.5421E-09
  2.5421E-09
  2.5421E-09
  2.5421E-09
  2.5421E-09
  2.5421E-09
  2.5421E-09
  2.5421E-09
  2.5421E-09
  9.8293E-09
  9.8293E-09
  9.8293E-09
  9.8293E-09
  9.8293E-09
  9.8293E-09
  9.8293E-09
  9.8293E-09
  9.8293E-09
  3.6267E-08
  3.6267E-08
  3.6267E-08
  3.6267E-08
  3.6267E-08
  3.6267E-08
  3.6267E-08
  3.6267E-08
  3.6267E-08
  1.3422E-07
  1.3422E-07
  1.3422E-07
  1.3422E-07
  1.3422E-07
  1.3422E-07
  1.3422E-07
  1.3422E-07
  1.3422E-07
  5.0062E-07
  5.0062E-07
  5.0062E-07
  5.0062E-07
  5.0062E-07
  5.0062E-07
  5.0062E-07
  5.0062E-07
  5.0062E-07
  1.8693E-06
  1.8693E-06
  1.8693E-06
  1.8693E-06
  1.8693E-06
  1.8693E-06
  1.8693E-06
  1.8693E-06
  1.8693E-06
  6.9777E-06
  6.9777E-06
  6.9777E-06
  6.9777E-06
  6.9777E-06
  6.9777E-06
  6.9777E-06
  6.9777E-06
  6.9777E-06
  2.6042E-05
  2.6042E-05
  2.6042E-05
  2.6042E-05
  2.6042E-05
  2.6042E-05
  2.6042E-05
  2.6042E-05
  2.6042E-05
  9.7191E-05
  9.7191E-05
  9.7191E-05
  9.7191E-05
  9.7191E-05
  9.7191E-05
  9.7191E-05
  9.7191E-05
  9.7191E-05
  3.6272E-04
  3.6272E-04
  3.6272E-04
  3.6272E-04
  3.6272E-04
  3.6272E-04
  3.6272E-04
  3.6272E-04
  3.6272E-04
  1.3537E-03
  1.3537E-03
  1.3537E-03
  1.3537E-03
  1.3537E-03
  1.3537E-03
  1.3537E-03
  1.3537E-03
  1.3537E-03
  2.1352E-03
  2.1352E-03
  2.1352E-03
  2.1352E-03
  2.1352E-03
  2.1352E-03
  2.1352E-03
  2.1352E-03
  2.1352E-03
   1.2000E-03
  1.9316E-19
  2.9042E-19
  3.8767E-19
  9.6581E-20
  2.2874E-19
  3.6091E-19
  0.0000E+00
  1.6707E-19
  3.3414E-19
  3.2325E-19
  4.4863E-19
  5.7400E-19
  1.6162E-19
  3.2897E-19
  4.9632E-19
  0.0000E+00
  2.0932E-19
  4.1864E-19
  1.1263E-18
  1.5216E-18
  1.9169E-18
  5.6314E-19
  1.0245E-18
  1.4858E-18
  0.0000E+00
  5.2739E-19
  1.0548E-18
  4.1637E-18
  5.7124E-18
  7.2610E-18
  2.0819E-18
  3.8602E-18
  5.6386E-18
  0.0000E+00
  2.0081E-18
  4.0162E-18
  1.5530E-17
  2.1182E-17
  2.6834E-17
  7.7652E-18
  1.4466E-17
  2.1166E-17
  0.0000E+00
  7.7492E-18
  1.5498E-17
  5.8075E-17
  7.8834E-17
  9.9594E-17
  2.9038E-17
  5.3978E-17
  7.8919E-17
  0.0000E+00
  2.9122E-17
  5.8244E-17
  2.1679E-16
  2.9350E-16
  3.7021E-16
  1.0839E-16
  2.0103E-16
  2.9367E-16
  0.0000E+00
  1.0857E-16
  2.1714E-16
  2.0168E-10
  2.0169E-10
  2.0169E-10
  2.0168E-10
  2.0168E-10
  2.0169E-10
  2.0168E-10
  2.0168E-10
  2.0168E-10
  8.0674E-10
  8.0674E-10
  8.0674E-10
  8.0674E-10
  8.0674E-10
  8.0674E-10
  8.0674E-10
  8.0674E-10
  8.0674E-10
  3.0253E-09
  3.0253E-09
  3.0253E-09
  3.0253E-09
  3.0253E-09
  3.0253E-09
  3.0253E-09
  3.0253E-09
  3.0253E-09
  1.1698E-08
  1.1698E-08
  1.1698E-08
  1.1698E-08
  1.1698E-08
  1.1698E-08
  1.1698E-08
  1.1698E-08
  1.1698E-08
  4.3161E-08
  4.3161E-08
  4.3161E-08
  4.3161E-08
  4.3161E-08
  4.3161E-08
  4.3161E-08
  4.3161E-08
  4.3161E-08
  1.5973E-07
  1.5973E-07
  1.5973E-07
  1.5973E-07
  1.5973E-07
  1.5973E-07
  1.5973E-07
  1.5973E-07
  1.5973E-07
  5.9578E-07
  5.9578E-07
  5.9578E-07
  5.9578E-07
  5.9578E-07
  5.9578E-07
  5.9578E-07
  5.9578E-07
  5.9578E-07
  2.2246E-06
  2.2246E-06
  2.2246E-06
  2.2246E-06
  2.2246E-06
  2.2246E-06
  2.2246E-06
  2.2246E-06
  2.2246E-06
  8.3040E-06
  8.3040E-06
  8.3040E-06
  8.3040E-06
  8.3040E-06
  8.3040E-06
  8.3040E-06
  8.3040E-06
  8.3040E-06
  3.0992E-05
  3.0992E-05
  3.0992E-05
  3.0992E-05
  3.0992E-05
  3.0992E-05
  3.0992E-05
  3.0992E-05
  3.0992E-05
  1.1566E-04
  1.1566E-04
  1.1566E-04
  1.1566E-04
  1.1566E-04
  1.1566E-04
  1.1566E-04
  1.1566E-04
  1.1566E-04
  4.3167E-04
  4.3167E-04
  4.3167E-04
  4.3167E-04
  4.3167E-04
  4.3167E-04
  4.3167E-04
  4.3167E-04
  4.3167E-04
  1.6110E-03
  1.6110E-03
  1.6110E-03
  1.6110E-03
  1.6110E-03
  1.6110E-03
  1.6110E-03
  1.6110E-03
  1.6110E-03
  2.5411E-03
  2.5411E-03
  2.5411E-03
  2.5411E-03
  2.5411E-03
  2.5411E-03
  2.5411E-03
  2.5411E-03
  2.5411E-03
   1.3000E-03
  2.4391E-19
  3.5331E-19
  4.6271E-19
  1.2196E-19
  2.7447E-19
  4.2697E-19
  0.0000E+00
  1.9562E-19
  3.9124E-19
  4.3391E-19
  5.8971E-19
  7.4550E-19
  2.1695E-19
  4.2644E-19
  6.3592E-19
  0.0000E+00
  2.6317E-19
  5.2634E-19
  1.5440E-18
  2.0808E-18
  2.6175E-18
  7.7200E-19
  1.4024E-18
  2.0328E-18
  0.0000E+00
  7.2401E-19
  1.4480E-18
  5.7229E-18
  7.8356E-18
  9.9484E-18
  2.8614E-18
  5.3048E-18
  7.7483E-18
  0.0000E+00
  2.7741E-18
  5.5481E-18
  2.1352E-17
  2.9091E-17
  3.6829E-17
  1.0676E-17
  1.9874E-17
  2.9072E-17
  0.0000E+00
  1.0657E-17
  2.1315E-17
  7.9824E-17
  1.0831E-16
  1.3680E-16
  3.9912E-17
  7.4162E-17
  1.0841E-16
  0.0000E+00
  4.0012E-17
  8.0023E-17
  2.9796E-16
  4.0339E-16
  5.0881E-16
  1.4898E-16
  2.7629E-16
  4.0360E-16
  0.0000E+00
  1.4919E-16
  2.9838E-16
  2.3670E-10
  2.3670E-10
  2.3670E-10
  2.3670E-10
  2.3670E-10
  2.3670E-10
  2.3670E-10
  2.3670E-10
  2.3670E-10
  9.4680E-10
  9.4680E-10
  9.4680E-10
  9.4680E-10
  9.4680E-10
  9.4680E-10
  9.4680E-10
  9.4680E-10
  9.4680E-10
  3.5505E-09
  3.5505E-09
  3.5505E-09
  3.5505E-09
  3.5505E-09
  3.5505E-09
  3.5505E-09
  3.5505E-09
  3.5505E-09
  1.3729E-08
  1.3729E-08
  1.3729E-08
  1.3729E-08
  1.3729E-08
  1.3729E-08
  1.3729E-08
  1.3729E-08
  1.3729E-08
  5.0654E-08
  5.0654E-08
  5.0654E-08
  5.0654E-08
  5.0654E-08
  5.0654E-08
  5.0654E-08
  5.0654E-08
  5.0654E-08
  1.8747E-07
  1.8747E-07
  1.8747E-07
  1.8747E-07
  1.8747E-07
  1.8747E-07
  1.8747E-07
  1.8747E-07
  1.8747E-07
  6.9921E-07
  6.9921E-07
  6.9921E-07
  6.9921E-07
  6.9921E-07
  6.9921E-07
  6.9921E-07
  6.9921E-07
  6.9921E-07
  2.6108E-06
  2.6108E-06
  2.6108E-06
  2.6108E-06
  2.6108E-06
  2.6108E-06
  2.6108E-06
  2.6108E-06
  2.6108E-06
  9.7457E-06
  9.7457E-06
  9.7457E-06
  9.7457E-06
  9.7457E-06
  9.7457E-06
  9.7457E-06
  9.7457E-06
  9.7457E-06
  3.6373E-05
  3.6373E-05
  3.6373E-05
  3.6373E-05
  3.6373E-05
  3.6373E-05
  3.6373E-05
  3.6373E-05
  3.6373E-05
  1.3575E-04
  1.3575E-04
  1.3575E-04
  1.3575E-04
  1.3575E-04
  1.3575E-04
  1.3575E-04
  1.3575E-04
  1.3575E-04
  5.0661E-04
  5.0661E-04
  5.0661E-04
  5.0661E-04
  5.0661E-04
  5.0661E-04
  5.0661E-04
  5.0661E-04
  5.0661E-04
  1.8907E-03
  1.8907E-03
  1.8907E-03
  1.8907E-03
  1.8907E-03
  1.8907E-03
  1.8907E-03
  1.8907E-03
  1.8907E-03
  2.9823E-03
  2.9823E-03
  2.9823E-03
  2.9823E-03
  2.9823E-03
  2.9823E-03
  2.9823E-03
  2.9823E-03
  2.9823E-03
   1.4000E-03
  3.0470E-19
  4.2617E-19
  5.4764E-19
  1.5235E-19
  3.2632E-19
  5.0029E-19
  0.0000E+00
  2.2647E-19
  4.5294E-19
  5.7187E-19
  7.6538E-19
  9.5890E-19
  2.8593E-19
  5.4711E-19
  8.0828E-19
  0.0000E+00
  3.2883E-19
  6.5766E-19
  2.0694E-18
  2.7850E-18
  3.5007E-18
  1.0347E-18
  1.8791E-18
  2.7236E-18
  0.0000E+00
  9.7324E-19
  1.9465E-18
  7.6850E-18
  1.0505E-17
  1.3326E-17
  3.8425E-18
  7.1229E-18
  1.0403E-17
  0.0000E+00
  3.7405E-18
  7.4809E-18
  2.8678E-17
  3.9037E-17
  4.9397E-17
  1.4339E-17
  2.6677E-17
  3.9016E-17
  0.0000E+00
  1.4318E-17
  2.8635E-17
  1.0719E-16
  1.4540E-16
  1.8360E-16
  5.3595E-17
  9.9554E-17
  1.4551E-16
  0.0000E+00
  5.3711E-17
  1.0742E-16
  4.0011E-16
  5.4165E-16
  6.8320E-16
  2.0005E-16
  3.7098E-16
  5.4190E-16
  0.0000E+00
  2.0030E-16
  4.0060E-16
  2.7452E-10
  2.7452E-10
  2.7452E-10
  2.7452E-10
  2.7452E-10
  2.7452E-10
  2.7452E-10
  2.7452E-10
  2.7452E-10
  1.0981E-09
  1.0981E-09
  1.0981E-09
  1.0981E-09
  1.0981E-09
  1.0981E-09
  1.0981E-09
  1.0981E-09
  1.0981E-09
  4.1177E-09
  4.1177E-09
  4.1177E-09
  4.1177E-09
  4.1177E-09
  4.1177E-09
  4.1177E-09
  4.1177E-09
  4.1177E-09
  1.5922E-08
  1.5922E-08
  1.5922E-08
  1.5922E-08
  1.5922E-08
  1.5922E-08
  1.5922E-08
  1.5922E-08
  1.5922E-08
  5.8746E-08
  5.8746E-08
  5.8746E-08
  5.8746E-08
  5.8746E-08
  5.8746E-08
  5.8746E-08
  5.8746E-08
  5.8746E-08
  2.1742E-07
  2.1742E-07
  2.1742E-07
  2.1742E-07
  2.1742E-07
  2.1742E-07
  2.1742E-07
  2.1742E-07
  2.1742E-07
  8.1092E-07
  8.1092E-07
  8.1092E-07
  8.1092E-07
  8.1092E-07
  8.1092E-07
  8.1092E-07
  8.1092E-07
  8.1092E-07
  3.0279E-06
  3.0279E-06
  3.0279E-06
  3.0279E-06
  3.0279E-06
  3.0279E-06
  3.0279E-06
  3.0279E-06
  3.0279E-06
  1.1303E-05
  1.1303E-05
  1.1303E-05
  1.1303E-05
  1.1303E-05
  1.1303E-05
  1.1303E-05
  1.1303E-05
  1.1303E-05
  4.2184E-05
  4.2184E-05
  4.2184E-05
  4.2184E-05
  4.2184E-05
  4.2184E-05
  4.2184E-05
  4.2184E-05
  4.2184E-05
  1.5743E-04
  1.5743E-04
  1.5743E-04
  1.5743E-04
  1.5743E-04
  1.5743E-04
  1.5743E-04
  1.5743E-04
  1.5743E-04
  5.8755E-04
  5.8755E-04
  5.8755E-04
  5.8755E-04
  5.8755E-04
  5.8755E-04
  5.8755E-04
  5.8755E-04
  5.8755E-04
  2.1928E-03
  2.1928E-03
  2.1928E-03
  2.1928E-03
  2.1928E-03
  2.1928E-03
  2.1928E-03
  2.1928E-03
  2.1928E-03
  3.4587E-03
  3.4587E-03
  3.4587E-03
  3.4587E-03
  3.4587E-03
  3.4587E-03
  3.4587E-03
  3.4587E-03
  3.4587E-03
   1.5000E-03
  3.7694E-19
  5.1056E-19
  6.4417E-19
  1.8847E-19
  3.8513E-19
  5.8179E-19
  0.0000E+00
  2.5970E-19
  5.1940E-19
  7.4142E-19
  9.8133E-19
  1.2213E-18
  3.7071E-19
  6.9477E-19
  1.0188E-18
  0.0000E+00
  4.0820E-19
  8.1639E-19
  2.7195E-18
  3.6576E-18
  4.5958E-18
  1.3597E-18
  2.4707E-18
  3.5816E-18
  0.0000E+00
  1.2837E-18
  2.5674E-18
  1.0114E-17
  1.3809E-17
  1.7503E-17
  5.0572E-18
  9.3740E-18
  1.3691E-17
  0.0000E+00
  4.9394E-18
  9.8789E-18
  3.7748E-17
  5.1348E-17
  6.4947E-17
  1.8874E-17
  3.5099E-17
  5.1323E-17
  0.0000E+00
  1.8850E-17
  3.7700E-17
  1.4107E-16
  1.9130E-16
  2.4153E-16
  7.0534E-17
  1.3098E-16
  1.9143E-16
  0.0000E+00
  7.0669E-17
  1.4134E-16
  5.2655E-16
  7.1282E-16
  8.9909E-16
  2.6328E-16
  4.8819E-16
  7.1311E-16
  0.0000E+00
  2.6356E-16
  5.2712E-16
  3.1513E-10
  3.1513E-10
  3.1513E-10
  3.1513E-10
  3.1513E-10
  3.1513E-10
  3.1513E-10
  3.1513E-10
  3.1513E-10
  1.2605E-09
  1.2605E-09
  1.2605E-09
  1.2605E-09
  1.2605E-09
  1.2605E-09
  1.2605E-09
  1.2605E-09
  1.2605E-09
  4.7270E-09
  4.7270E-09
  4.7270E-09
  4.7270E-09
  4.7270E-09
  4.7270E-09
  4.7270E-09
  4.7270E-09
  4.7270E-09
  1.8278E-08
  1.8278E-08
  1.8278E-08
  1.8278E-08
  1.8278E-08
  1.8278E-08
  1.8278E-08
  1.8278E-08
  1.8278E-08
  6.7438E-08
  6.7438E-08
  6.7438E-08
  6.7438E-08
  6.7438E-08
  6.7438E-08
  6.7438E-08
  6.7438E-08
  6.7438E-08
  2.4958E-07
  2.4958E-07
  2.4958E-07
  2.4958E-07
  2.4958E-07
  2.4958E-07
  2.4958E-07
  2.4958E-07
  2.4958E-07
  9.3090E-07
  9.3090E-07
  9.3090E-07
  9.3090E-07
  9.3090E-07
  9.3090E-07
  9.3090E-07
  9.3090E-07
  9.3090E-07
  3.4759E-06
  3.4759E-06
  3.4759E-06
  3.4759E-06
  3.4759E-06
  3.4759E-06
  3.4759E-06
  3.4759E-06
  3.4759E-06
  1.2975E-05
  1.2975E-05
  1.2975E-05
  1.2975E-05
  1.2975E-05
  1.2975E-05
  1.2975E-05
  1.2975E-05
  1.2975E-05
  4.8425E-05
  4.8425E-05
  4.8425E-05
  4.8425E-05
  4.8425E-05
  4.8425E-05
  4.8425E-05
  4.8425E-05
  4.8425E-05
  1.8073E-04
  1.8073E-04
  1.8073E-04
  1.8073E-04
  1.8073E-04
  1.8073E-04
  1.8073E-04
  1.8073E-04
  1.8073E-04
  6.7448E-04
  6.7448E-04
  6.7448E-04
  6.7448E-04
  6.7448E-04
  6.7448E-04
  6.7448E-04
  6.7448E-04
  6.7448E-04
  2.5172E-03
  2.5172E-03
  2.5172E-03
  2.5172E-03
  2.5172E-03
  2.5172E-03
  2.5172E-03
  2.5172E-03
  2.5172E-03
  3.9705E-03
  3.9705E-03
  3.9705E-03
  3.9705E-03
  3.9705E-03
  3.9705E-03
  3.9705E-03
  3.9705E-03
  3.9705E-03
   1.6000E-03
  4.6219E-19
  6.0841E-19
  7.5463E-19
  2.3110E-19
  4.5192E-19
  6.7275E-19
  0.0000E+00
  2.9544E-19
  5.9087E-19
  9.4716E-19
  1.2437E-18
  1.5403E-18
  4.7358E-19
  8.7352E-19
  1.2735E-18
  0.0000E+00
  5.0330E-19
  1.0066E-18
  3.5128E-18
  4.7235E-18
  5.9343E-18
  1.7564E-18
  3.1941E-18
  4.6318E-18
  0.0000E+00
  1.6647E-18
  3.3294E-18
  1.3080E-17
  1.7839E-17
  2.2597E-17
  6.5400E-18
  1.2122E-17
  1.7704E-17
  0.0000E+00
  6.4055E-18
  1.2811E-17
  4.8821E-17
  6.6370E-17
  8.3919E-17
  2.4411E-17
  4.5377E-17
  6.6343E-17
  0.0000E+00
  2.4383E-17
  4.8766E-17
  1.8242E-16
  2.4732E-16
  3.1222E-16
  9.1210E-17
  1.6934E-16
  2.4747E-16
  0.0000E+00
  9.1364E-17
  1.8273E-16
  6.8089E-16
  9.2174E-16
  1.1626E-15
  3.4044E-16
  6.3126E-16
  9.2207E-16
  0.0000E+00
  3.4077E-16
  6.8154E-16
  3.5855E-10
  3.5855E-10
  3.5855E-10
  3.5855E-10
  3.5855E-10
  3.5855E-10
  3.5855E-10
  3.5855E-10
  3.5855E-10
  1.4342E-09
  1.4342E-09
  1.4342E-09
  1.4342E-09
  1.4342E-09
  1.4342E-09
  1.4342E-09
  1.4342E-09
  1.4342E-09
  5.3783E-09
  5.3783E-09
  5.3783E-09
  5.3783E-09
  5.3783E-09
  5.3783E-09
  5.3783E-09
  5.3783E-09
  5.3783E-09
  2.0796E-08
  2.0796E-08
  2.0796E-08
  2.0796E-08
  2.0796E-08
  2.0796E-08
  2.0796E-08
  2.0796E-08
  2.0796E-08
  7.6730E-08
  7.6730E-08
  7.6730E-08
  7.6730E-08
  7.6730E-08
  7.6730E-08
  7.6730E-08
  7.6730E-08
  7.6730E-08
  2.8397E-07
  2.8397E-07
  2.8397E-07
  2.8397E-07
  2.8397E-07
  2.8397E-07
  2.8397E-07
  2.8397E-07
  2.8397E-07
  1.0592E-06
  1.0592E-06
  1.0592E-06
  1.0592E-06
  1.0592E-06
  1.0592E-06
  1.0592E-06
  1.0592E-06
  1.0592E-06
  3.9548E-06
  3.9548E-06
  3.9548E-06
  3.9548E-06
  3.9548E-06
  3.9548E-06
  3.9548E-06
  3.9548E-06
  3.9548E-06
  1.4763E-05
  1.4763E-05
  1.4763E-05
  1.4763E-05
  1.4763E-05
  1.4763E-05
  1.4763E-05
  1.4763E-05
  1.4763E-05
  5.5097E-05
  5.5097E-05
  5.5097E-05
  5.5097E-05
  5.5097E-05
  5.5097E-05
  5.5097E-05
  5.5097E-05
  5.5097E-05
  2.0563E-04
  2.0563E-04
  2.0563E-04
  2.0563E-04
  2.0563E-04
  2.0563E-04
  2.0563E-04
  2.0563E-04
  2.0563E-04
  7.6741E-04
  7.6741E-04
  7.6741E-04
  7.6741E-04
  7.6741E-04
  7.6741E-04
  7.6741E-04
  7.6741E-04
  7.6741E-04
  2.8640E-03
  2.8640E-03
  2.8640E-03
  2.8640E-03
  2.8640E-03
  2.8640E-03
  2.8640E-03
  2.8640E-03
  2.8640E-03
  4.5175E-03
  4.5175E-03
  4.5175E-03
  4.5175E-03
  4.5175E-03
  4.5175E-03
  4.5175E-03
  4.5175E-03
  4.5175E-03
   1.7000E-03
  5.6209E-19
  7.2211E-19
  8.8213E-19
  2.8105E-19
  5.2797E-19
  7.7490E-19
  0.0000E+00
  3.3384E-19
  6.6767E-19
  1.1940E-18
  1.5593E-18
  1.9247E-18
  5.9700E-19
  1.0878E-18
  1.5787E-18
  0.0000E+00
  6.1631E-19
  1.2326E-18
  4.4688E-18
  6.0093E-18
  7.5497E-18
  2.2344E-18
  4.0677E-18
  5.9009E-18
  0.0000E+00
  2.1260E-18
  4.2521E-18
  1.6655E-17
  2.2695E-17
  2.8735E-17
  8.3277E-18
  1.5435E-17
  2.2543E-17
  0.0000E+00
  8.1754E-18
  1.6351E-17
  6.2171E-17
  8.4477E-17
  1.0678E-16
  3.1085E-17
  5.7766E-17
  8.4446E-17
  0.0000E+00
  3.1055E-17
  6.2109E-17
  2.3227E-16
  3.1485E-16
  3.9743E-16
  1.1614E-16
  2.1558E-16
  3.1502E-16
  0.0000E+00
  1.1631E-16
  2.3262E-16
  8.6695E-16
  1.1736E-15
  1.4803E-15
  4.3348E-16
  8.0373E-16
  1.1740E-15
  0.0000E+00
  4.3385E-16
  8.6770E-16
  4.0477E-10
  4.0477E-10
  4.0477E-10
  4.0477E-10
  4.0477E-10
  4.0477E-10
  4.0477E-10
  4.0477E-10
  4.0477E-10
  1.6191E-09
  1.6191E-09
  1.6191E-09
  1.6191E-09
  1.6191E-09
  1.6191E-09
  1.6191E-09
  1.6191E-09
  1.6191E-09
  6.0715E-09
  6.0715E-09
  6.0715E-09
  6.0715E-09
  6.0715E-09
  6.0715E-09
  6.0716E-09
  6.0715E-09
  6.0715E-09
  2.3477E-08
  2.3477E-08
  2.3477E-08
  2.3477E-08
  2.3477E-08
  2.3477E-08
  2.3477E-08
  2.3477E-08
  2.3477E-08
  8.6621E-08
  8.6621E-08
  8.6621E-08
  8.6621E-08
  8.6621E-08
  8.6621E-08
  8.6621E-08
  8.6621E-08
  8.6621E-08
  3.2058E-07
  3.2058E-07
  3.2058E-07
  3.2058E-07
  3.2058E-07
  3.2058E-07
  3.2058E-07
  3.2058E-07
  3.2058E-07
  1.1957E-06
  1.1957E-06
  1.1957E-06
  1.1957E-06
  1.1957E-06
  1.1957E-06
  1.1957E-06
  1.1957E-06
  1.1957E-06
  4.4646E-06
  4.4646E-06
  4.4646E-06
  4.4646E-06
  4.4646E-06
  4.4646E-06
  4.4646E-06
  4.4646E-06
  4.4646E-06
  1.6666E-05
  1.6666E-05
  1.6666E-05
  1.6666E-05
  1.6666E-05
  1.6666E-05
  1.6666E-05
  1.6666E-05
  1.6666E-05
  6.2199E-05
  6.2199E-05
  6.2199E-05
  6.2199E-05
  6.2199E-05
  6.2199E-05
  6.2199E-05
  6.2199E-05
  6.2199E-05
  2.3213E-04
  2.3213E-04
  2.3213E-04
  2.3213E-04
  2.3213E-04
  2.3213E-04
  2.3213E-04
  2.3213E-04
  2.3213E-04
  8.6633E-04
  8.6633E-04
  8.6633E-04
  8.6633E-04
  8.6633E-04
  8.6633E-04
  8.6633E-04
  8.6633E-04
  8.6633E-04
  3.2332E-03
  3.2332E-03
  3.2332E-03
  3.2332E-03
  3.2332E-03
  3.2332E-03
  3.2332E-03
  3.2332E-03
  3.2332E-03
  5.0999E-03
  5.0999E-03
  5.0999E-03
  5.0999E-03
  5.0999E-03
  5.0999E-03
  5.0999E-03
  5.0999E-03
  5.0999E-03
   1.8000E-03
  6.7840E-19
  8.5450E-19
  1.0306E-18
  3.3920E-19
  6.1480E-19
  8.9041E-19
  0.0000E+00
  3.7511E-19
  7.5022E-19
  1.4872E-18
  1.9355E-18
  2.3838E-18
  7.4360E-19
  1.3425E-18
  1.9414E-18
  0.0000E+00
  7.4953E-19
  1.4991E-18
  5.6087E-18
  7.5432E-18
  9.4778E-18
  2.8043E-18
  5.1107E-18
  7.4171E-18
  0.0000E+00
  2.6782E-18
  5.3565E-18
  2.0919E-17
  2.8485E-17
  3.6050E-17
  1.0460E-17
  1.9387E-17
  2.8314E-17
  0.0000E+00
  1.0288E-17
  2.0577E-17
  7.8091E-17
  1.0607E-16
  1.3404E-16
  3.9045E-17
  7.2538E-17
  1.0603E-16
  0.0000E+00
  3.9011E-17
  7.8022E-17
  2.9172E-16
  3.9537E-16
  4.9902E-16
  1.4586E-16
  2.7071E-16
  3.9557E-16
  0.0000E+00
  1.4606E-16
  2.9211E-16
  1.0888E-15
  1.4739E-15
  1.8591E-15
  5.4441E-16
  1.0094E-15
  1.4744E-15
  0.0000E+00
  5.4483E-16
  1.0897E-15
  4.5379E-10
  4.5379E-10
  4.5379E-10
  4.5379E-10
  4.5379E-10
  4.5379E-10
  4.5379E-10
  4.5379E-10
  4.5379E-10
  1.8152E-09
  1.8152E-09
  1.8152E-09
  1.8152E-09
  1.8152E-09
  1.8152E-09
  1.8152E-09
  1.8152E-09
  1.8152E-09
  6.8068E-09
  6.8068E-09
  6.8068E-09
  6.8069E-09
  6.8068E-09
  6.8068E-09
  6.8069E-09
  6.8069E-09
  6.8068E-09
  2.6320E-08
  2.6320E-08
  2.6320E-08
  2.6320E-08
  2.6320E-08
  2.6320E-08
  2.6320E-08
  2.6320E-08
  2.6320E-08
  9.7111E-08
  9.7111E-08
  9.7111E-08
  9.7111E-08
  9.7111E-08
  9.7111E-08
  9.7111E-08
  9.7111E-08
  9.7111E-08
  3.5940E-07
  3.5940E-07
  3.5940E-07
  3.5940E-07
  3.5940E-07
  3.5940E-07
  3.5940E-07
  3.5940E-07
  3.5940E-07
  1.3405E-06
  1.3405E-06
  1.3405E-06
  1.3405E-06
  1.3405E-06
  1.3405E-06
  1.3405E-06
  1.3405E-06
  1.3405E-06
  5.0053E-06
  5.0053E-06
  5.0053E-06
  5.0053E-06
  5.0053E-06
  5.0053E-06
  5.0053E-06
  5.0053E-06
  5.0053E-06
  1.8684E-05
  1.8684E-05
  1.8684E-05
  1.8684E-05
  1.8684E-05
  1.8684E-05
  1.8684E-05
  1.8684E-05
  1.8684E-05
  6.9732E-05
  6.9732E-05
  6.9732E-05
  6.9732E-05
  6.9732E-05
  6.9732E-05
  6.9732E-05
  6.9732E-05
  6.9732E-05
  2.6024E-04
  2.6024E-04
  2.6024E-04
  2.6024E-04
  2.6024E-04
  2.6024E-04
  2.6024E-04
  2.6024E-04
  2.6024E-04
  9.7125E-04
  9.7125E-04
  9.7125E-04
  9.7125E-04
  9.7125E-04
  9.7125E-04
  9.7125E-04
  9.7125E-04
  9.7125E-04
  3.6247E-03
  3.6247E-03
  3.6247E-03
  3.6247E-03
  3.6247E-03
  3.6247E-03
  3.6247E-03
  3.6247E-03
  3.6247E-03
  5.7175E-03
  5.7175E-03
  5.7175E-03
  5.7175E-03
  5.7175E-03
  5.7175E-03
  5.7175E-03
  5.7175E-03
  5.7175E-03
   1.9000E-03
  8.1297E-19
  1.0087E-18
  1.2044E-18
  4.0649E-19
  7.1412E-19
  1.0217E-18
  0.0000E+00
  4.1953E-19
  8.3906E-19
  1.8323E-18
  2.3800E-18
  2.9277E-18
  9.1614E-19
  1.6427E-18
  2.3693E-18
  0.0000E+00
  9.0542E-19
  1.8108E-18
  6.9544E-18
  9.3555E-18
  1.1757E-17
  3.4772E-18
  6.3440E-18
  9.2107E-18
  0.0000E+00
  3.3324E-18
  6.6648E-18
  2.5955E-17
  3.5320E-17
  4.4685E-17
  1.2978E-17
  2.4053E-17
  3.5129E-17
  0.0000E+00
  1.2786E-17
  2.5573E-17
  9.6892E-17
  1.3156E-16
  1.6622E-16
  4.8446E-17
  8.9982E-17
  1.3152E-16
  0.0000E+00
  4.8408E-17
  9.6816E-17
  3.6192E-16
  4.9045E-16
  6.1898E-16
  1.8096E-16
  3.3581E-16
  4.9067E-16
  0.0000E+00
  1.8118E-16
  3.6236E-16
  1.3508E-15
  1.8286E-15
  2.3064E-15
  6.7542E-16
  1.2522E-15
  1.8291E-15
  0.0000E+00
  6.7589E-16
  1.3518E-15
  5.0561E-10
  5.0561E-10
  5.0561E-10
  5.0561E-10
  5.0561E-10
  5.0561E-10
  5.0561E-10
  5.0561E-10
  5.0561E-10
  2.0225E-09
  2.0225E-09
  2.0225E-09
  2.0225E-09
  2.0225E-09
  2.0225E-09
  2.0225E-09
  2.0225E-09
  2.0225E-09
  7.5842E-09
  7.5842E-09
  7.5841E-09
  7.5842E-09
  7.5842E-09
  7.5842E-09
  7.5842E-09
  7.5842E-09
  7.5842E-09
  2.9325E-08
  2.9325E-08
  2.9325E-08
  2.9326E-08
  2.9325E-08
  2.9325E-08
  2.9326E-08
  2.9326E-08
  2.9325E-08
  1.0820E-07
  1.0820E-07
  1.0820E-07
  1.0820E-07
  1.0820E-07
  1.0820E-07
  1.0820E-07
  1.0820E-07
  1.0820E-07
  4.0044E-07
  4.0044E-07
  4.0044E-07
  4.0044E-07
  4.0044E-07
  4.0044E-07
  4.0045E-07
  4.0044E-07
  4.0044E-07
  1.4936E-06
  1.4936E-06
  1.4936E-06
  1.4936E-06
  1.4936E-06
  1.4936E-06
  1.4936E-06
  1.4936E-06
  1.4936E-06
  5.5769E-06
  5.5769E-06
  5.5769E-06
  5.5769E-06
  5.5769E-06
  5.5769E-06
  5.5769E-06
  5.5769E-06
  5.5769E-06
  2.0817E-05
  2.0817E-05
  2.0817E-05
  2.0817E-05
  2.0817E-05
  2.0817E-05
  2.0817E-05
  2.0817E-05
  2.0817E-05
  7.7695E-05
  7.7695E-05
  7.7695E-05
  7.7695E-05
  7.7695E-05
  7.7695E-05
  7.7695E-05
  7.7695E-05
  7.7695E-05
  2.8996E-04
  2.8996E-04
  2.8996E-04
  2.8996E-04
  2.8996E-04
  2.8996E-04
  2.8996E-04
  2.8996E-04
  2.8996E-04
  1.0822E-03
  1.0822E-03
  1.0822E-03
  1.0822E-03
  1.0822E-03
  1.0822E-03
  1.0822E-03
  1.0822E-03
  1.0822E-03
  4.0387E-03
  4.0387E-03
  4.0387E-03
  4.0387E-03
  4.0387E-03
  4.0387E-03
  4.0387E-03
  4.0387E-03
  4.0387E-03
  6.3704E-03
  6.3704E-03
  6.3704E-03
  6.3704E-03
  6.3704E-03
  6.3704E-03
  6.3704E-03
  6.3704E-03
  6.3704E-03
   2.0000E-03
  9.6777E-19
  1.1879E-18
  1.4080E-18
  4.8388E-19
  8.2765E-19
  1.1714E-18
  0.0000E+00
  4.6742E-19
  9.3483E-19
  2.2351E-18
  2.9011E-18
  3.5670E-18
  1.1176E-18
  1.9938E-18
  2.8701E-18
  0.0000E+00
  1.0866E-18
  2.1732E-18
  8.5296E-18
  1.1478E-17
  1.4426E-17
  4.2648E-18
  7.7891E-18
  1.1313E-17
  0.0000E+00
  4.1003E-18
  8.2005E-18
  3.1851E-17
  4.3320E-17
  5.4789E-17
  1.5925E-17
  2.9516E-17
  4.3107E-17
  0.0000E+00
  1.5713E-17
  3.1426E-17
  1.1890E-16
  1.6139E-16
  2.0388E-16
  5.9451E-17
  1.1040E-16
  1.6135E-16
  0.0000E+00
  5.9410E-17
  1.1882E-16
  4.4410E-16
  6.0175E-16
  7.5940E-16
  2.2205E-16
  4.1202E-16
  6.0199E-16
  0.0000E+00
  2.2230E-16
  4.4459E-16
  1.6576E-15
  2.2438E-15
  2.8300E-15
  8.2878E-16
  1.5365E-15
  2.2443E-15
  0.0000E+00
  8.2931E-16
  1.6586E-15
  5.6024E-10
  5.6024E-10
  5.6024E-10
  5.6024E-10
  5.6024E-10
  5.6024E-10
  5.6024E-10
  5.6024E-10
  5.6024E-10
  2.2409E-09
  2.2409E-09
  2.2409E-09
  2.2409E-09
  2.2409E-09
  2.2409E-09
  2.2409E-09
  2.2409E-09
  2.2409E-09
  8.4035E-09
  8.4035E-09
  8.4035E-09
  8.4035E-09
  8.4035E-09
  8.4035E-09
  8.4035E-09
  8.4035E-09
  8.4035E-09
  3.2494E-08
  3.2494E-08
  3.2493E-08
  3.2494E-08
  3.2494E-08
  3.2494E-08
  3.2494E-08
  3.2494E-08
  3.2494E-08
  1.1989E-07
  1.1989E-07
  1.1989E-07
  1.1989E-07
  1.1989E-07
  1.1989E-07
  1.1989E-07
  1.1989E-07
  1.1989E-07
  4.4371E-07
  4.4371E-07
  4.4371E-07
  4.4371E-07
  4.4371E-07
  4.4371E-07
  4.4371E-07
  4.4371E-07
  4.4371E-07
  1.6549E-06
  1.6549E-06
  1.6549E-06
  1.6549E-06
  1.6549E-06
  1.6549E-06
  1.6549E-06
  1.6549E-06
  1.6549E-06
  6.1794E-06
  6.1794E-06
  6.1794E-06
  6.1794E-06
  6.1794E-06
  6.1794E-06
  6.1794E-06
  6.1794E-06
  6.1794E-06
  2.3066E-05
  2.3066E-05
  2.3066E-05
  2.3066E-05
  2.3066E-05
  2.3066E-05
  2.3066E-05
  2.3066E-05
  2.3066E-05
  8.6088E-05
  8.6088E-05
  8.6088E-05
  8.6088E-05
  8.6088E-05
  8.6088E-05
  8.6088E-05
  8.6088E-05
  8.6088E-05
  3.2129E-04
  3.2129E-04
  3.2129E-04
  3.2129E-04
  3.2129E-04
  3.2129E-04
  3.2129E-04
  3.2129E-04
  3.2129E-04
  1.1991E-03
  1.1991E-03
  1.1991E-03
  1.1991E-03
  1.1991E-03
  1.1991E-03
  1.1991E-03
  1.1991E-03
  1.1991E-03
  4.4750E-03
  4.4750E-03
  4.4750E-03
  4.4750E-03
  4.4750E-03
  4.4750E-03
  4.4750E-03
  4.4750E-03
  4.4750E-03
  7.0586E-03
  7.0586E-03
  7.0586E-03
  7.0586E-03
  7.0586E-03
  7.0586E-03
  7.0586E-03
  7.0586E-03
  7.0586E-03
   2.1000E-03
  1.1449E-18
  1.3951E-18
  1.6452E-18
  5.7243E-19
  9.5712E-19
  1.3418E-18
  0.0000E+00
  5.1918E-19
  1.0384E-18
  2.7020E-18
  3.5072E-18
  4.3124E-18
  1.3510E-18
  2.4015E-18
  3.4520E-18
  0.0000E+00
  1.2958E-18
  2.5917E-18
  1.0359E-17
  1.3944E-17
  1.7529E-17
  5.1795E-18
  9.4690E-18
  1.3758E-17
  0.0000E+00
  4.9942E-18
  9.9884E-18
  3.8698E-17
  5.2610E-17
  6.6521E-17
  1.9349E-17
  3.5862E-17
  5.2376E-17
  0.0000E+00
  1.9115E-17
  3.8230E-17
  1.4447E-16
  1.9605E-16
  2.4762E-16
  7.2235E-17
  1.3412E-16
  1.9600E-16
  0.0000E+00
  7.2189E-17
  1.4438E-16
  5.3956E-16
  7.3102E-16
  9.2248E-16
  2.6978E-16
  5.0053E-16
  7.3129E-16
  0.0000E+00
  2.7005E-16
  5.4010E-16
  2.0138E-15
  2.7260E-15
  3.4382E-15
  1.0069E-15
  1.8668E-15
  2.7266E-15
  0.0000E+00
  1.0075E-15
  2.0150E-15
  6.1766E-10
  6.1766E-10
  6.1766E-10
  6.1766E-10
  6.1766E-10
  6.1766E-10
  6.1766E-10
  6.1766E-10
  6.1766E-10
  2.4706E-09
  2.4706E-09
  2.4706E-09
  2.4706E-09
  2.4706E-09
  2.4706E-09
  2.4706E-09
  2.4706E-09
  2.4706E-09
  9.2649E-09
  9.2649E-09
  9.2649E-09
  9.2649E-09
  9.2649E-09
  9.2649E-09
  9.2649E-09
  9.2649E-09
  9.2649E-09
  3.5824E-08
  3.5824E-08
  3.5824E-08
  3.5824E-08
  3.5824E-08
  3.5824E-08
  3.5824E-08
  3.5824E-08
  3.5824E-08
  1.3218E-07
  1.3218E-07
  1.3218E-07
  1.3218E-07
  1.3218E-07
  1.3218E-07
  1.3218E-07
  1.3218E-07
  1.3218E-07
  4.8919E-07
  4.8919E-07
  4.8918E-07
  4.8919E-07
  4.8919E-07
  4.8919E-07
  4.8919E-07
  4.8919E-07
  4.8919E-07
  1.8246E-06
  1.8246E-06
  1.8246E-06
  1.8246E-06
  1.8246E-06
  1.8246E-06
  1.8246E-06
  1.8246E-06
  1.8246E-06
  6.8128E-06
  6.8128E-06
  6.8128E-06
  6.8128E-06
  6.8128E-06
  6.8128E-06
  6.8128E-06
  6.8128E-06
  6.8128E-06
  2.5431E-05
  2.5431E-05
  2.5431E-05
  2.5431E-05
  2.5431E-05
  2.5431E-05
  2.5431E-05
  2.5431E-05
  2.5431E-05
  9.4912E-05
  9.4912E-05
  9.4912E-05
  9.4912E-05
  9.4912E-05
  9.4912E-05
  9.4912E-05
  9.4912E-05
  9.4912E-05
  3.5422E-04
  3.5422E-04
  3.5422E-04
  3.5422E-04
  3.5422E-04
  3.5422E-04
  3.5422E-04
  3.5422E-04
  3.5422E-04
  1.3220E-03
  1.3220E-03
  1.3220E-03
  1.3220E-03
  1.3220E-03
  1.3220E-03
  1.3220E-03
  1.3220E-03
  1.3220E-03
  4.9337E-03
  4.9337E-03
  4.9337E-03
  4.9337E-03
  4.9337E-03
  4.9337E-03
  4.9337E-03
  4.9337E-03
  4.9337E-03
  7.7821E-03
  7.7821E-03
  7.7821E-03
  7.7821E-03
  7.7821E-03
  7.7821E-03
  7.7821E-03
  7.7821E-03
  7.7821E-03
   2.2000E-03
  1.3464E-18
  1.6332E-18
  1.9199E-18
  6.7321E-19
  1.1042E-18
  1.5352E-18
  0.0000E+00
  5.7528E-19
  1.1506E-18
  3.2393E-18
  4.2072E-18
  5.1751E-18
  1.6196E-18
  2.8716E-18
  4.1236E-18
  0.0000E+00
  1.5361E-18
  3.0722E-18
  1.2468E-17
  1.6788E-17
  2.1108E-17
  6.2342E-18
  1.1408E-17
  1.6581E-17
  0.0000E+00
  6.0273E-18
  1.2055E-17
  4.6596E-17
  6.3322E-17
  8.0048E-17
  2.3298E-17
  4.3182E-17
  6.3065E-17
  0.0000E+00
  2.3041E-17
  4.6081E-17
  1.7396E-16
  2.3601E-16
  2.9806E-16
  8.6979E-17
  1.6147E-16
  2.3596E-16
  0.0000E+00
  8.6928E-17
  1.7386E-16
  6.4965E-16
  8.8010E-16
  1.1106E-15
  3.2482E-16
  6.0261E-16
  8.8040E-16
  0.0000E+00
  3.2512E-16
  6.5024E-16
  2.4247E-15
  3.2822E-15
  4.1397E-15
  1.2123E-15
  2.2476E-15
  3.2828E-15
  0.0000E+00
  1.2130E-15
  2.4260E-15
  6.7789E-10
  6.7789E-10
  6.7789E-10
  6.7789E-10
  6.7789E-10
  6.7789E-10
  6.7789E-10
  6.7789E-10
  6.7789E-10
  2.7115E-09
  2.7115E-09
  2.7115E-09
  2.7115E-09
  2.7115E-09
  2.7115E-09
  2.7115E-09
  2.7115E-09
  2.7115E-09
  1.0168E-08
  1.0168E-08
  1.0168E-08
  1.0168E-08
  1.0168E-08
  1.0168E-08
  1.0168E-08
  1.0168E-08
  1.0168E-08
  3.9317E-08
  3.9317E-08
  3.9317E-08
  3.9317E-08
  3.9317E-08
  3.9317E-08
  3.9317E-08
  3.9317E-08
  3.9317E-08
  1.4507E-07
  1.4507E-07
  1.4507E-07
  1.4507E-07
  1.4507E-07
  1.4507E-07
  1.4507E-07
  1.4507E-07
  1.4507E-07
  5.3688E-07
  5.3688E-07
  5.3688E-07
  5.3688E-07
  5.3688E-07
  5.3688E-07
  5.3688E-07
  5.3688E-07
  5.3688E-07
  2.0025E-06
  2.0025E-06
  2.0025E-06
  2.0025E-06
  2.0025E-06
  2.0025E-06
  2.0025E-06
  2.0025E-06
  2.0025E-06
  7.4771E-06
  7.4771E-06
  7.4771E-06
  7.4771E-06
  7.4771E-06
  7.4771E-06
  7.4771E-06
  7.4771E-06
  7.4771E-06
  2.7910E-05
  2.7910E-05
  2.7910E-05
  2.7910E-05
  2.7910E-05
  2.7910E-05
  2.7910E-05
  2.7910E-05
  2.7910E-05
  1.0417E-04
  1.0417E-04
  1.0417E-04
  1.0417E-04
  1.0417E-04
  1.0417E-04
  1.0417E-04
  1.0417E-04
  1.0417E-04
  3.8876E-04
  3.8876E-04
  3.8876E-04
  3.8876E-04
  3.8876E-04
  3.8876E-04
  3.8876E-04
  3.8876E-04
  3.8876E-04
  1.4509E-03
  1.4509E-03
  1.4509E-03
  1.4509E-03
  1.4509E-03
  1.4509E-03
  1.4509E-03
  1.4509E-03
  1.4509E-03
  5.4147E-03
  5.4147E-03
  5.4147E-03
  5.4147E-03
  5.4147E-03
  5.4147E-03
  5.4147E-03
  5.4147E-03
  5.4147E-03
  8.5409E-03
  8.5409E-03
  8.5409E-03
  8.5409E-03
  8.5409E-03
  8.5409E-03
  8.5409E-03
  8.5409E-03
  8.5409E-03
   2.3000E-03
  1.5747E-18
  1.9053E-18
  2.2358E-18
  7.8737E-19
  1.2708E-18
  1.7542E-18
  0.0000E+00
  6.3630E-19
  1.2726E-18
  3.8538E-18
  5.0102E-18
  6.1666E-18
  1.9269E-18
  3.4104E-18
  4.8938E-18
  0.0000E+00
  1.8105E-18
  3.6210E-18
  1.4885E-17
  2.0049E-17
  2.5212E-17
  7.4427E-18
  1.3631E-17
  1.9819E-17
  0.0000E+00
  7.2130E-18
  1.4426E-17
  5.5647E-17
  7.5596E-17
  9.5545E-17
  2.7823E-17
  5.1569E-17
  7.5314E-17
  0.0000E+00
  2.7542E-17
  5.5083E-17
  2.0775E-16
  2.8179E-16
  3.5584E-16
  1.0387E-16
  1.9281E-16
  2.8174E-16
  0.0000E+00
  1.0382E-16
  2.0764E-16
  7.7579E-16
  1.0509E-15
  1.3260E-15
  3.8790E-16
  7.1957E-16
  1.0512E-15
  0.0000E+00
  3.8822E-16
  7.7645E-16
  2.8955E-15
  3.9195E-15
  4.9435E-15
  1.4477E-15
  2.6840E-15
  3.9202E-15
  0.0000E+00
  1.4485E-15
  2.8969E-15
  7.4091E-10
  7.4091E-10
  7.4092E-10
  7.4091E-10
  7.4091E-10
  7.4091E-10
  7.4091E-10
  7.4091E-10
  7.4091E-10
  2.9636E-09
  2.9636E-09
  2.9636E-09
  2.9636E-09
  2.9636E-09
  2.9636E-09
  2.9636E-09
  2.9636E-09
  2.9636E-09
  1.1114E-08
  1.1114E-08
  1.1114E-08
  1.1114E-08
  1.1114E-08
  1.1114E-08
  1.1114E-08
  1.1114E-08
  1.1114E-08
  4.2973E-08
  4.2973E-08
  4.2973E-08
  4.2973E-08
  4.2973E-08
  4.2973E-08
  4.2973E-08
  4.2973E-08
  4.2973E-08
  1.5855E-07
  1.5855E-07
  1.5855E-07
  1.5855E-07
  1.5855E-07
  1.5855E-07
  1.5856E-07
  1.5855E-07
  1.5855E-07
  5.8680E-07
  5.8680E-07
  5.8680E-07
  5.8680E-07
  5.8680E-07
  5.8680E-07
  5.8680E-07
  5.8680E-07
  5.8680E-07
  2.1886E-06
  2.1886E-06
  2.1886E-06
  2.1887E-06
  2.1886E-06
  2.1886E-06
  2.1887E-06
  2.1887E-06
  2.1886E-06
  8.1722E-06
  8.1722E-06
  8.1722E-06
  8.1722E-06
  8.1722E-06
  8.1722E-06
  8.1722E-06
  8.1722E-06
  8.1722E-06
  3.0505E-05
  3.0505E-05
  3.0505E-05
  3.0505E-05
  3.0505E-05
  3.0505E-05
  3.0505E-05
  3.0505E-05
  3.0505E-05
  1.1385E-04
  1.1385E-04
  1.1385E-04
  1.1385E-04
  1.1385E-04
  1.1385E-04
  1.1385E-04
  1.1385E-04
  1.1385E-04
  4.2490E-04
  4.2490E-04
  4.2490E-04
  4.2490E-04
  4.2490E-04
  4.2490E-04
  4.2490E-04
  4.2490E-04
  4.2490E-04
  1.5858E-03
  1.5858E-03
  1.5858E-03
  1.5858E-03
  1.5858E-03
  1.5858E-03
  1.5858E-03
  1.5858E-03
  1.5858E-03
  5.9182E-03
  5.9182E-03
  5.9182E-03
  5.9182E-03
  5.9182E-03
  5.9182E-03
  5.9182E-03
  5.9182E-03
  5.9182E-03
  9.3350E-03
  9.3350E-03
  9.3350E-03
  9.3350E-03
  9.3350E-03
  9.3350E-03
  9.3350E-03
  9.3350E-03
  9.3350E-03
   2.4000E-03
  1.8322E-18
  2.2146E-18
  2.5970E-18
  9.1610E-19
  1.4609E-18
  2.0058E-18
  0.0000E+00
  7.0726E-19
  1.4145E-18
  4.5529E-18
  5.9260E-18
  7.2991E-18
  2.2764E-18
  4.0253E-18
  5.7741E-18
  0.0000E+00
  2.1245E-18
  4.2491E-18
  1.7638E-17
  2.3763E-17
  2.9888E-17
  8.8192E-18
  1.6165E-17
  2.3510E-17
  0.0000E+00
  8.5658E-18
  1.7132E-17
  6.5957E-17
  8.9575E-17
  1.1319E-16
  3.2978E-17
  6.1123E-17
  8.9267E-17
  0.0000E+00
  3.2671E-17
  6.5342E-17
  2.4624E-16
  3.3395E-16
  4.2166E-16
  1.2312E-16
  2.2850E-16
  3.3389E-16
  0.0000E+00
  1.2306E-16
  2.4612E-16
  9.1949E-16
  1.2455E-15
  1.5715E-15
  4.5975E-16
  8.5280E-16
  1.2459E-15
  0.0000E+00
  4.6010E-16
  9.2020E-16
  3.4318E-15
  4.6454E-15
  5.8590E-15
  1.7159E-15
  3.1810E-15
  4.6462E-15
  0.0000E+00
  1.7167E-15
  3.4333E-15
  8.0674E-10
  8.0674E-10
  8.0674E-10
  8.0674E-10
  8.0674E-10
  8.0674E-10
  8.0674E-10
  8.0674E-10
  8.0674E-10
  3.2270E-09
  3.2270E-09
  3.2270E-09
  3.2270E-09
  3.2270E-09
  3.2270E-09
  3.2270E-09
  3.2270E-09
  3.2270E-09
  1.2101E-08
  1.2101E-08
  1.2101E-08
  1.2101E-08
  1.2101E-08
  1.2101E-08
  1.2101E-08
  1.2101E-08
  1.2101E-08
  4.6791E-08
  4.6791E-08
  4.6791E-08
  4.6791E-08
  4.6791E-08
  4.6791E-08
  4.6791E-08
  4.6791E-08
  4.6791E-08
  1.7264E-07
  1.7264E-07
  1.7264E-07
  1.7264E-07
  1.7264E-07
  1.7264E-07
  1.7264E-07
  1.7264E-07
  1.7264E-07
  6.3894E-07
  6.3894E-07
  6.3893E-07
  6.3894E-07
  6.3894E-07
  6.3894E-07
  6.3894E-07
  6.3894E-07
  6.3894E-07
  2.3831E-06
  2.3831E-06
  2.3831E-06
  2.3831E-06
  2.3831E-06
  2.3831E-06
  2.3831E-06
  2.3831E-06
  2.3831E-06
  8.8983E-06
  8.8983E-06
  8.8983E-06
  8.8983E-06
  8.8983E-06
  8.8983E-06
  8.8983E-06
  8.8983E-06
  8.8983E-06
  3.3215E-05
  3.3215E-05
  3.3215E-05
  3.3215E-05
  3.3215E-05
  3.3215E-05
  3.3215E-05
  3.3215E-05
  3.3215E-05
  1.2397E-04
  1.2397E-04
  1.2397E-04
  1.2397E-04
  1.2397E-04
  1.2397E-04
  1.2397E-04
  1.2397E-04
  1.2397E-04
  4.6265E-04
  4.6265E-04
  4.6265E-04
  4.6265E-04
  4.6265E-04
  4.6265E-04
  4.6265E-04
  4.6265E-04
  4.6265E-04
  1.7266E-03
  1.7266E-03
  1.7266E-03
  1.7266E-03
  1.7266E-03
  1.7266E-03
  1.7266E-03
  1.7266E-03
  1.7266E-03
  6.4440E-03
  6.4440E-03
  6.4440E-03
  6.4440E-03
  6.4440E-03
  6.4440E-03
  6.4440E-03
  6.4440E-03
  6.4440E-03
  1.0164E-02
  1.0164E-02
  1.0164E-02
  1.0164E-02
  1.0164E-02
  1.0164E-02
  1.0164E-02
  1.0164E-02
  1.0164E-02
   2.5000E-03
  2.1213E-18
  2.5645E-18
  3.0078E-18
  1.0606E-18
  1.6894E-18
  2.3181E-18
  0.0000E+00
  8.1417E-19
  1.6283E-18
  5.3437E-18
  6.9646E-18
  8.5854E-18
  2.6719E-18
  4.7294E-18
  6.7870E-18
  0.0000E+00
  2.4943E-18
  4.9886E-18
  2.0757E-17
  2.7973E-17
  3.5188E-17
  1.0379E-17
  1.9037E-17
  2.7695E-17
  0.0000E+00
  1.0100E-17
  2.0201E-17
  7.7638E-17
  1.0541E-16
  1.3318E-16
  3.8819E-17
  7.1948E-17
  1.0508E-16
  0.0000E+00
  3.8485E-17
  7.6970E-17
  2.8985E-16
  3.9303E-16
  4.9621E-16
  1.4492E-16
  2.6895E-16
  3.9297E-16
  0.0000E+00
  1.4486E-16
  2.8972E-16
  1.0823E-15
  1.4659E-15
  1.8496E-15
  5.4115E-16
  1.0037E-15
  1.4663E-15
  0.0000E+00
  5.4154E-16
  1.0831E-15
  4.0394E-15
  5.4679E-15
  6.8963E-15
  2.0197E-15
  3.7442E-15
  5.4687E-15
  0.0000E+00
  2.0205E-15
  4.0411E-15
  8.7537E-10
  8.7537E-10
  8.7537E-10
  8.7537E-10
  8.7537E-10
  8.7537E-10
  8.7537E-10
  8.7537E-10
  8.7537E-10
  3.5015E-09
  3.5015E-09
  3.5015E-09
  3.5015E-09
  3.5015E-09
  3.5015E-09
  3.5015E-09
  3.5015E-09
  3.5015E-09
  1.3130E-08
  1.3130E-08
  1.3130E-08
  1.3130E-08
  1.3130E-08
  1.3130E-08
  1.3131E-08
  1.3130E-08
  1.3130E-08
  5.0771E-08
  5.0771E-08
  5.0771E-08
  5.0771E-08
  5.0771E-08
  5.0771E-08
  5.0771E-08
  5.0771E-08
  5.0771E-08
  1.8733E-07
  1.8733E-07
  1.8733E-07
  1.8733E-07
  1.8733E-07
  1.8733E-07
  1.8733E-07
  1.8733E-07
  1.8733E-07
  6.9329E-07
  6.9329E-07
  6.9329E-07
  6.9329E-07
  6.9329E-07
  6.9329E-07
  6.9329E-07
  6.9329E-07
  6.9329E-07
  2.5858E-06
  2.5858E-06
  2.5858E-06
  2.5858E-06
  2.5858E-06
  2.5858E-06
  2.5858E-06
  2.5858E-06
  2.5858E-06
  9.6553E-06
  9.6553E-06
  9.6553E-06
  9.6553E-06
  9.6553E-06
  9.6553E-06
  9.6553E-06
  9.6553E-06
  9.6553E-06
  3.6041E-05
  3.6041E-05
  3.6041E-05
  3.6041E-05
  3.6041E-05
  3.6041E-05
  3.6041E-05
  3.6041E-05
  3.6041E-05
  1.3451E-04
  1.3451E-04
  1.3451E-04
  1.3451E-04
  1.3451E-04
  1.3451E-04
  1.3451E-04
  1.3451E-04
  1.3451E-04
  5.0201E-04
  5.0201E-04
  5.0201E-04
  5.0201E-04
  5.0201E-04
  5.0201E-04
  5.0201E-04
  5.0201E-04
  5.0201E-04
  1.8735E-03
  1.8735E-03
  1.8735E-03
  1.8735E-03
  1.8735E-03
  1.8735E-03
  1.8735E-03
  1.8735E-03
  1.8735E-03
  6.9922E-03
  6.9922E-03
  6.9922E-03
  6.9922E-03
  6.9922E-03
  6.9922E-03
  6.9922E-03
  6.9922E-03
  6.9922E-03
  1.1029E-02
  1.1029E-02
  1.1029E-02
  1.1029E-02
  1.1029E-02
  1.1029E-02
  1.1029E-02
  1.1029E-02
  1.1029E-02
   2.6000E-03
  2.4446E-18
  2.9586E-18
  3.4727E-18
  1.2223E-18
  1.9469E-18
  2.6715E-18
  0.0000E+00
  9.3513E-19
  1.8703E-18
  6.2343E-18
  8.1366E-18
  1.0039E-17
  3.1171E-18
  5.5243E-18
  7.9315E-18
  0.0000E+00
  2.9121E-18
  5.8243E-18
  2.4273E-17
  3.2719E-17
  4.1165E-17
  1.2136E-17
  2.2276E-17
  3.2415E-17
  0.0000E+00
  1.1833E-17
  2.3665E-17
  9.0806E-17
  1.2326E-16
  1.5572E-16
  4.5403E-17
  8.4152E-17
  1.2290E-16
  0.0000E+00
  4.5042E-17
  9.0084E-17
  3.3901E-16
  4.5964E-16
  5.8026E-16
  1.6951E-16
  3.1454E-16
  4.5957E-16
  0.0000E+00
  1.6944E-16
  3.3888E-16
  1.2658E-15
  1.7144E-15
  2.1631E-15
  6.3291E-16
  1.1739E-15
  1.7149E-15
  0.0000E+00
  6.3334E-16
  1.2667E-15
  4.7244E-15
  6.3951E-15
  8.0657E-15
  2.3622E-15
  4.3791E-15
  6.3960E-15
  0.0000E+00
  2.3631E-15
  4.7262E-15
  9.4680E-10
  9.4680E-10
  9.4680E-10
  9.4680E-10
  9.4680E-10
  9.4680E-10
  9.4680E-10
  9.4680E-10
  9.4680E-10
  3.7872E-09
  3.7872E-09
  3.7872E-09
  3.7872E-09
  3.7872E-09
  3.7872E-09
  3.7872E-09
  3.7872E-09
  3.7872E-09
  1.4202E-08
  1.4202E-08
  1.4202E-08
  1.4202E-08
  1.4202E-08
  1.4202E-08
  1.4202E-08
  1.4202E-08
  1.4202E-08
  5.4914E-08
  5.4914E-08
  5.4914E-08
  5.4914E-08
  5.4914E-08
  5.4914E-08
  5.4914E-08
  5.4914E-08
  5.4914E-08
  2.0261E-07
  2.0261E-07
  2.0261E-07
  2.0261E-07
  2.0261E-07
  2.0261E-07
  2.0261E-07
  2.0261E-07
  2.0261E-07
  7.4986E-07
  7.4986E-07
  7.4986E-07
  7.4986E-07
  7.4986E-07
  7.4986E-07
  7.4986E-07
  7.4986E-07
  7.4986E-07
  2.7968E-06
  2.7968E-06
  2.7968E-06
  2.7968E-06
  2.7968E-06
  2.7968E-06
  2.7968E-06
  2.7968E-06
  2.7968E-06
  1.0443E-05
  1.0443E-05
  1.0443E-05
  1.0443E-05
  1.0443E-05
  1.0443E-05
  1.0443E-05
  1.0443E-05
  1.0443E-05
  3.8982E-05
  3.8982E-05
  3.8982E-05
  3.8982E-05
  3.8982E-05
  3.8982E-05
  3.8982E-05
  3.8982E-05
  3.8982E-05
  1.4549E-04
  1.4549E-04
  1.4549E-04
  1.4549E-04
  1.4549E-04
  1.4549E-04
  1.4549E-04
  1.4549E-04
  1.4549E-04
  5.4297E-04
  5.4297E-04
  5.4297E-04
  5.4297E-04
  5.4297E-04
  5.4297E-04
  5.4297E-04
  5.4297E-04
  5.4297E-04
  2.0264E-03
  2.0264E-03
  2.0264E-03
  2.0264E-03
  2.0264E-03
  2.0264E-03
  2.0264E-03
  2.0264E-03
  2.0264E-03
  7.5627E-03
  7.5627E-03
  7.5627E-03
  7.5627E-03
  7.5627E-03
  7.5627E-03
  7.5627E-03
  7.5627E-03
  7.5627E-03
  1.1929E-02
  1.1929E-02
  1.1929E-02
  1.1929E-02
  1.1929E-02
  1.1929E-02
  1.1929E-02
  1.1929E-02
  1.1929E-02
   2.7000E-03
  2.8048E-18
  3.4006E-18
  3.9965E-18
  1.4024E-18
  2.2362E-18
  3.0699E-18
  0.0000E+00
  1.0717E-18
  2.1433E-18
  7.2326E-18
  9.4529E-18
  1.1673E-17
  3.6163E-18
  6.4175E-18
  9.2187E-18
  0.0000E+00
  3.3821E-18
  6.7642E-18
  2.8218E-17
  3.8045E-17
  4.7873E-17
  1.4109E-17
  2.5912E-17
  3.7715E-17
  0.0000E+00
  1.3778E-17
  2.7557E-17
  1.0558E-16
  1.4329E-16
  1.8100E-16
  5.2792E-17
  9.7847E-17
  1.4290E-16
  0.0000E+00
  5.2402E-17
  1.0480E-16
  3.9419E-16
  5.3437E-16
  6.7456E-16
  1.9709E-16
  3.6570E-16
  5.3430E-16
  0.0000E+00
  1.9702E-16
  3.9404E-16
  1.4718E-15
  1.9933E-15
  2.5148E-15
  7.3589E-16
  1.3648E-15
  1.9938E-15
  0.0000E+00
  7.3635E-16
  1.4727E-15
  5.4931E-15
  7.4355E-15
  9.3780E-15
  2.7465E-15
  5.0915E-15
  7.4365E-15
  0.0000E+00
  2.7475E-15
  5.4950E-15
  1.0210E-09
  1.0210E-09
  1.0210E-09
  1.0210E-09
  1.0210E-09
  1.0210E-09
  1.0210E-09
  1.0210E-09
  1.0210E-09
  4.0841E-09
  4.0841E-09
  4.0840E-09
  4.0841E-09
  4.0841E-09
  4.0841E-09
  4.0841E-09
  4.0841E-09
  4.0841E-09
  1.5315E-08
  1.5315E-08
  1.5315E-08
  1.5315E-08
  1.5315E-08
  1.5315E-08
  1.5315E-08
  1.5315E-08
  1.5315E-08
  5.9219E-08
  5.9219E-08
  5.9219E-08
  5.9220E-08
  5.9219E-08
  5.9219E-08
  5.9220E-08
  5.9220E-08
  5.9219E-08
  2.1850E-07
  2.1850E-07
  2.1850E-07
  2.1850E-07
  2.1850E-07
  2.1850E-07
  2.1850E-07
  2.1850E-07
  2.1850E-07
  8.0865E-07
  8.0865E-07
  8.0865E-07
  8.0865E-07
  8.0865E-07
  8.0865E-07
  8.0866E-07
  8.0865E-07
  8.0865E-07
  3.0161E-06
  3.0161E-06
  3.0161E-06
  3.0161E-06
  3.0161E-06
  3.0161E-06
  3.0161E-06
  3.0161E-06
  3.0161E-06
  1.1262E-05
  1.1262E-05
  1.1262E-05
  1.1262E-05
  1.1262E-05
  1.1262E-05
  1.1262E-05
  1.1262E-05
  1.1262E-05
  4.2038E-05
  4.2038E-05
  4.2038E-05
  4.2038E-05
  4.2038E-05
  4.2038E-05
  4.2038E-05
  4.2038E-05
  4.2038E-05
  1.5689E-04
  1.5689E-04
  1.5689E-04
  1.5689E-04
  1.5689E-04
  1.5689E-04
  1.5689E-04
  1.5689E-04
  1.5689E-04
  5.8554E-04
  5.8554E-04
  5.8554E-04
  5.8554E-04
  5.8554E-04
  5.8554E-04
  5.8554E-04
  5.8554E-04
  5.8554E-04
  2.1853E-03
  2.1853E-03
  2.1853E-03
  2.1853E-03
  2.1853E-03
  2.1853E-03
  2.1853E-03
  2.1853E-03
  2.1853E-03
  8.1556E-03
  8.1556E-03
  8.1556E-03
  8.1556E-03
  8.1556E-03
  8.1556E-03
  8.1556E-03
  8.1556E-03
  8.1556E-03
  1.2864E-02
  1.2864E-02
  1.2864E-02
  1.2864E-02
  1.2864E-02
  1.2864E-02
  1.2864E-02
  1.2864E-02
  1.2864E-02
   2.8000E-03
  3.2047E-18
  3.8944E-18
  4.5841E-18
  1.6023E-18
  2.5599E-18
  3.5174E-18
  0.0000E+00
  1.2254E-18
  2.4507E-18
  8.3470E-18
  1.0925E-17
  1.3503E-17
  4.1735E-18
  7.4168E-18
  1.0660E-17
  0.0000E+00
  3.9085E-18
  7.8171E-18
  3.2626E-17
  4.3998E-17
  5.5370E-17
  1.6313E-17
  2.9976E-17
  4.3640E-17
  0.0000E+00
  1.5955E-17
  3.1909E-17
  1.2210E-16
  1.6567E-16
  2.0924E-16
  6.1048E-17
  1.1315E-16
  1.6525E-16
  0.0000E+00
  6.0629E-17
  1.2126E-16
  4.5584E-16
  6.1788E-16
  7.7993E-16
  2.2792E-16
  4.2286E-16
  6.1780E-16
  0.0000E+00
  2.2784E-16
  4.5568E-16
  1.7019E-15
  2.3049E-15
  2.9079E-15
  8.5096E-16
  1.5782E-15
  2.3054E-15
  0.0000E+00
  8.5145E-16
  1.7029E-15
  6.3519E-15
  8.5981E-15
  1.0844E-14
  3.1760E-15
  5.8876E-15
  8.5992E-15
  0.0000E+00
  3.1771E-15
  6.3541E-15
  1.0981E-09
  1.0981E-09
  1.0981E-09
  1.0981E-09
  1.0981E-09
  1.0981E-09
  1.0981E-09
  1.0981E-09
  1.0981E-09
  4.3922E-09
  4.3922E-09
  4.3922E-09
  4.3922E-09
  4.3922E-09
  4.3922E-09
  4.3922E-09
  4.3922E-09
  4.3922E-09
  1.6471E-08
  1.6471E-08
  1.6471E-08
  1.6471E-08
  1.6471E-08
  1.6471E-08
  1.6471E-08
  1.6471E-08
  1.6471E-08
  6.3687E-08
  6.3687E-08
  6.3687E-08
  6.3687E-08
  6.3687E-08
  6.3687E-08
  6.3688E-08
  6.3687E-08
  6.3687E-08
  2.3498E-07
  2.3498E-07
  2.3498E-07
  2.3498E-07
  2.3498E-07
  2.3498E-07
  2.3499E-07
  2.3498E-07
  2.3498E-07
  8.6966E-07
  8.6966E-07
  8.6966E-07
  8.6966E-07
  8.6966E-07
  8.6966E-07
  8.6966E-07
  8.6966E-07
  8.6966E-07
  3.2437E-06
  3.2437E-06
  3.2437E-06
  3.2437E-06
  3.2437E-06
  3.2437E-06
  3.2437E-06
  3.2437E-06
  3.2437E-06
  1.2112E-05
  1.2112E-05
  1.2111E-05
  1.2112E-05
  1.2112E-05
  1.2112E-05
  1.2112E-05
  1.2112E-05
  1.2112E-05
  4.5209E-05
  4.5209E-05
  4.5209E-05
  4.5209E-05
  4.5209E-05
  4.5209E-05
  4.5209E-05
  4.5209E-05
  4.5209E-05
  1.6873E-04
  1.6873E-04
  1.6873E-04
  1.6873E-04
  1.6873E-04
  1.6873E-04
  1.6873E-04
  1.6873E-04
  1.6873E-04
  6.2971E-04
  6.2971E-04
  6.2971E-04
  6.2971E-04
  6.2971E-04
  6.2971E-04
  6.2971E-04
  6.2971E-04
  6.2971E-04
  2.3502E-03
  2.3502E-03
  2.3502E-03
  2.3502E-03
  2.3502E-03
  2.3502E-03
  2.3502E-03
  2.3502E-03
  2.3502E-03
  8.7709E-03
  8.7709E-03
  8.7709E-03
  8.7709E-03
  8.7709E-03
  8.7709E-03
  8.7709E-03
  8.7709E-03
  8.7709E-03
  1.3835E-02
  1.3835E-02
  1.3835E-02
  1.3835E-02
  1.3835E-02
  1.3835E-02
  1.3835E-02
  1.3835E-02
  1.3835E-02
   2.9000E-03
  3.6472E-18
  4.4439E-18
  5.2406E-18
  1.8236E-18
  2.9209E-18
  4.0182E-18
  0.0000E+00
  1.3979E-18
  2.7957E-18
  9.5863E-18
  1.2565E-17
  1.5543E-17
  4.7932E-18
  8.5303E-18
  1.2267E-17
  0.0000E+00
  4.4959E-18
  8.9917E-18
  3.7531E-17
  5.0624E-17
  6.3716E-17
  1.8766E-17
  3.4501E-17
  5.0237E-17
  0.0000E+00
  1.8379E-17
  3.6757E-17
  1.4048E-16
  1.9058E-16
  2.4068E-16
  7.0238E-17
  1.3018E-16
  1.9013E-16
  0.0000E+00
  6.9788E-17
  1.3958E-16
  5.2445E-16
  7.1082E-16
  8.9720E-16
  2.6223E-16
  4.8648E-16
  7.1074E-16
  0.0000E+00
  2.6214E-16
  5.2428E-16
  1.9581E-15
  2.6517E-15
  3.3453E-15
  9.7903E-16
  1.8156E-15
  2.6522E-15
  0.0000E+00
  9.7956E-16
  1.9591E-15
  7.3079E-15
  9.8920E-15
  1.2476E-14
  3.6539E-15
  6.7736E-15
  9.8932E-15
  0.0000E+00
  3.6551E-15
  7.3102E-15
  1.1779E-09
  1.1779E-09
  1.1779E-09
  1.1779E-09
  1.1779E-09
  1.1779E-09
  1.1779E-09
  1.1779E-09
  1.1779E-09
  4.7115E-09
  4.7115E-09
  4.7115E-09
  4.7116E-09
  4.7115E-09
  4.7115E-09
  4.7116E-09
  4.7116E-09
  4.7115E-09
  1.7668E-08
  1.7668E-08
  1.7668E-08
  1.7668E-08
  1.7668E-08
  1.7668E-08
  1.7668E-08
  1.7668E-08
  1.7668E-08
  6.8318E-08
  6.8317E-08
  6.8317E-08
  6.8318E-08
  6.8318E-08
  6.8317E-08
  6.8318E-08
  6.8318E-08
  6.8318E-08
  2.5207E-07
  2.5207E-07
  2.5207E-07
  2.5207E-07
  2.5207E-07
  2.5207E-07
  2.5207E-07
  2.5207E-07
  2.5207E-07
  9.3289E-07
  9.3289E-07
  9.3289E-07
  9.3289E-07
  9.3289E-07
  9.3289E-07
  9.3289E-07
  9.3289E-07
  9.3289E-07
  3.4795E-06
  3.4795E-06
  3.4795E-06
  3.4795E-06
  3.4795E-06
  3.4795E-06
  3.4795E-06
  3.4795E-06
  3.4795E-06
  1.2992E-05
  1.2992E-05
  1.2992E-05
  1.2992E-05
  1.2992E-05
  1.2992E-05
  1.2992E-05
  1.2992E-05
  1.2992E-05
  4.8496E-05
  4.8496E-05
  4.8496E-05
  4.8496E-05
  4.8496E-05
  4.8496E-05
  4.8496E-05
  4.8496E-05
  4.8496E-05
  1.8100E-04
  1.8100E-04
  1.8100E-04
  1.8100E-04
  1.8100E-04
  1.8100E-04
  1.8100E-04
  1.8100E-04
  1.8100E-04
  6.7550E-04
  6.7550E-04
  6.7550E-04
  6.7550E-04
  6.7550E-04
  6.7550E-04
  6.7550E-04
  6.7550E-04
  6.7550E-04
  2.5210E-03
  2.5210E-03
  2.5210E-03
  2.5210E-03
  2.5210E-03
  2.5210E-03
  2.5210E-03
  2.5210E-03
  2.5210E-03
  9.4086E-03
  9.4086E-03
  9.4086E-03
  9.4086E-03
  9.4086E-03
  9.4086E-03
  9.4086E-03
  9.4086E-03
  9.4086E-03
  1.4841E-02
  1.4841E-02
  1.4841E-02
  1.4841E-02
  1.4841E-02
  1.4841E-02
  1.4841E-02
  1.4841E-02
  1.4841E-02
   3.0000E-03
  4.1354E-18
  5.0534E-18
  5.9713E-18
  2.0677E-18
  3.3221E-18
  4.5765E-18
  0.0000E+00
  1.5909E-18
  3.1818E-18
  1.0960E-17
  1.4384E-17
  1.7809E-17
  5.4798E-18
  9.7665E-18
  1.4053E-17
  0.0000E+00
  5.1487E-18
  1.0297E-17
  4.2971E-17
  5.7972E-17
  7.2973E-17
  2.1485E-17
  3.9520E-17
  5.7555E-17
  0.0000E+00
  2.1069E-17
  4.2137E-17
  1.6086E-16
  2.1819E-16
  2.7553E-16
  8.0428E-17
  1.4907E-16
  2.1771E-16
  0.0000E+00
  7.9946E-17
  1.5989E-16
  6.0054E-16
  8.1388E-16
  1.0272E-15
  3.0027E-16
  5.5703E-16
  8.1379E-16
  0.0000E+00
  3.0018E-16
  6.0036E-16
  2.2421E-15
  3.0362E-15
  3.8303E-15
  1.1210E-15
  2.0789E-15
  3.0368E-15
  0.0000E+00
  1.1216E-15
  2.2432E-15
  8.3679E-15
  1.1327E-14
  1.4286E-14
  4.1840E-15
  7.7560E-15
  1.1328E-14
  0.0000E+00
  4.1852E-15
  8.3704E-15
  1.2605E-09
  1.2605E-09
  1.2605E-09
  1.2605E-09
  1.2605E-09
  1.2605E-09
  1.2605E-09
  1.2605E-09
  1.2605E-09
  5.0421E-09
  5.0421E-09
  5.0420E-09
  5.0421E-09
  5.0421E-09
  5.0421E-09
  5.0421E-09
  5.0421E-09
  5.0421E-09
  1.8908E-08
  1.8908E-08
  1.8908E-08
  1.8908E-08
  1.8908E-08
  1.8908E-08
  1.8908E-08
  1.8908E-08
  1.8908E-08
  7.3110E-08
  7.3110E-08
  7.3110E-08
  7.3111E-08
  7.3110E-08
  7.3110E-08
  7.3111E-08
  7.3111E-08
  7.3110E-08
  2.6975E-07
  2.6975E-07
  2.6975E-07
  2.6975E-07
  2.6975E-07
  2.6975E-07
  2.6975E-07
  2.6975E-07
  2.6975E-07
  9.9834E-07
  9.9833E-07
  9.9833E-07
  9.9834E-07
  9.9834E-07
  9.9833E-07
  9.9834E-07
  9.9834E-07
  9.9834E-07
  3.7236E-06
  3.7236E-06
  3.7236E-06
  3.7236E-06
  3.7236E-06
  3.7236E-06
  3.7236E-06
  3.7236E-06
  3.7236E-06
  1.3903E-05
  1.3903E-05
  1.3903E-05
  1.3903E-05
  1.3903E-05
  1.3903E-05
  1.3903E-05
  1.3903E-05
  1.3903E-05
  5.1898E-05
  5.1898E-05
  5.1898E-05
  5.1898E-05
  5.1898E-05
  5.1898E-05
  5.1898E-05
  5.1898E-05
  5.1898E-05
  1.9369E-04
  1.9369E-04
  1.9369E-04
  1.9369E-04
  1.9369E-04
  1.9369E-04
  1.9369E-04
  1.9369E-04
  1.9369E-04
  7.2288E-04
  7.2288E-04
  7.2288E-04
  7.2288E-04
  7.2288E-04
  7.2288E-04
  7.2288E-04
  7.2288E-04
  7.2288E-04
  2.6979E-03
  2.6979E-03
  2.6979E-03
  2.6979E-03
  2.6979E-03
  2.6979E-03
  2.6979E-03
  2.6979E-03
  2.6979E-03
  1.0069E-02
  1.0069E-02
  1.0069E-02
  1.0069E-02
  1.0069E-02
  1.0069E-02
  1.0069E-02
  1.0069E-02
  1.0069E-02
  1.5882E-02
  1.5882E-02
  1.5882E-02
  1.5882E-02
  1.5882E-02
  1.5882E-02
  1.5882E-02
  1.5882E-02
  1.5882E-02
   3.1000E-03
  4.6724E-18
  5.7270E-18
  6.7816E-18
  2.3362E-18
  3.7666E-18
  5.1969E-18
  0.0000E+00
  1.8062E-18
  3.6123E-18
  1.2476E-17
  1.6396E-17
  2.0317E-17
  6.2380E-18
  1.1134E-17
  1.6030E-17
  0.0000E+00
  5.8719E-18
  1.1744E-17
  4.8981E-17
  6.6093E-17
  8.3204E-17
  2.4491E-17
  4.5068E-17
  6.5645E-17
  0.0000E+00
  2.4043E-17
  4.8087E-17
  1.8338E-16
  2.4871E-16
  3.1404E-16
  9.1689E-17
  1.6994E-16
  2.4819E-16
  0.0000E+00
  9.1175E-17
  1.8235E-16
  6.8462E-16
  9.2776E-16
  1.1709E-15
  3.4231E-16
  6.3499E-16
  9.2767E-16
  0.0000E+00
  3.4222E-16
  6.8443E-16
  2.5560E-15
  3.4611E-15
  4.3663E-15
  1.2780E-15
  2.3699E-15
  3.4618E-15
  0.0000E+00
  1.2786E-15
  2.5572E-15
  9.5393E-15
  1.2912E-14
  1.6286E-14
  4.7697E-15
  8.8417E-15
  1.2914E-14
  0.0000E+00
  4.7710E-15
  9.5420E-15
  1.3460E-09
  1.3459E-09
  1.3459E-09
  1.3460E-09
  1.3460E-09
  1.3459E-09
  1.3460E-09
  1.3460E-09
  1.3460E-09
  5.3838E-09
  5.3838E-09
  5.3838E-09
  5.3838E-09
  5.3838E-09
  5.3838E-09
  5.3839E-09
  5.3838E-09
  5.3838E-09
  2.0189E-08
  2.0189E-08
  2.0189E-08
  2.0189E-08
  2.0189E-08
  2.0189E-08
  2.0189E-08
  2.0189E-08
  2.0189E-08
  7.8066E-08
  7.8065E-08
  7.8065E-08
  7.8066E-08
  7.8066E-08
  7.8065E-08
  7.8066E-08
  7.8066E-08
  7.8066E-08
  2.8804E-07
  2.8803E-07
  2.8803E-07
  2.8804E-07
  2.8804E-07
  2.8803E-07
  2.8804E-07
  2.8804E-07
  2.8804E-07
  1.0660E-06
  1.0660E-06
  1.0660E-06
  1.0660E-06
  1.0660E-06
  1.0660E-06
  1.0660E-06
  1.0660E-06
  1.0660E-06
  3.9760E-06
  3.9760E-06
  3.9760E-06
  3.9760E-06
  3.9760E-06
  3.9760E-06
  3.9760E-06
  3.9760E-06
  3.9760E-06
  1.4846E-05
  1.4846E-05
  1.4846E-05
  1.4846E-05
  1.4846E-05
  1.4846E-05
  1.4846E-05
  1.4846E-05
  1.4846E-05
  5.5415E-05
  5.5415E-05
  5.5415E-05
  5.5415E-05
  5.5415E-05
  5.5415E-05
  5.5415E-05
  5.5415E-05
  5.5415E-05
  2.0682E-04
  2.0682E-04
  2.0682E-04
  2.0682E-04
  2.0682E-04
  2.0682E-04
  2.0682E-04
  2.0682E-04
  2.0682E-04
  7.7188E-04
  7.7188E-04
  7.7188E-04
  7.7188E-04
  7.7188E-04
  7.7188E-04
  7.7188E-04
  7.7188E-04
  7.7188E-04
  2.8807E-03
  2.8807E-03
  2.8807E-03
  2.8807E-03
  2.8807E-03
  2.8807E-03
  2.8807E-03
  2.8807E-03
  2.8807E-03
  1.0751E-02
  1.0751E-02
  1.0751E-02
  1.0751E-02
  1.0751E-02
  1.0751E-02
  1.0751E-02
  1.0751E-02
  1.0751E-02
  1.6958E-02
  1.6958E-02
  1.6958E-02
  1.6958E-02
  1.6958E-02
  1.6958E-02
  1.6958E-02
  1.6958E-02
  1.6958E-02
   3.2000E-03
  5.2614E-18
  6.4692E-18
  7.6770E-18
  2.6307E-18
  4.2573E-18
  5.8840E-18
  0.0000E+00
  2.0454E-18
  4.0909E-18
  1.4146E-17
  1.8614E-17
  2.3083E-17
  7.0728E-18
  1.2642E-17
  1.8212E-17
  0.0000E+00
  6.6703E-18
  1.3341E-17
  5.5602E-17
  7.5039E-17
  9.4475E-17
  2.7801E-17
  5.1180E-17
  7.4560E-17
  0.0000E+00
  2.7322E-17
  5.4644E-17
  2.0819E-16
  2.8232E-16
  3.5646E-16
  1.0409E-16
  1.9293E-16
  2.8177E-16
  0.0000E+00
  1.0355E-16
  2.0709E-16
  7.7725E-16
  1.0532E-15
  1.3292E-15
  3.8862E-16
  7.2086E-16
  1.0531E-15
  0.0000E+00
  3.8852E-16
  7.7704E-16
  2.9017E-15
  3.9292E-15
  4.9568E-15
  1.4508E-15
  2.6904E-15
  3.9299E-15
  0.0000E+00
  1.4515E-15
  2.9030E-15
  1.0830E-14
  1.4659E-14
  1.8488E-14
  5.4148E-15
  1.0038E-14
  1.4660E-14
  0.0000E+00
  5.4163E-15
  1.0833E-14
  1.4342E-09
  1.4342E-09
  1.4342E-09
  1.4342E-09
  1.4342E-09
  1.4342E-09
  1.4342E-09
  1.4342E-09
  1.4342E-09
  5.7368E-09
  5.7367E-09
  5.7367E-09
  5.7368E-09
  5.7368E-09
  5.7367E-09
  5.7368E-09
  5.7368E-09
  5.7368E-09
  2.1513E-08
  2.1513E-08
  2.1513E-08
  2.1513E-08
  2.1513E-08
  2.1513E-08
  2.1513E-08
  2.1513E-08
  2.1513E-08
  8.3183E-08
  8.3183E-08
  8.3183E-08
  8.3184E-08
  8.3183E-08
  8.3183E-08
  8.3184E-08
  8.3184E-08
  8.3183E-08
  3.0692E-07
  3.0692E-07
  3.0692E-07
  3.0692E-07
  3.0692E-07
  3.0692E-07
  3.0692E-07
  3.0692E-07
  3.0692E-07
  1.1359E-06
  1.1359E-06
  1.1359E-06
  1.1359E-06
  1.1359E-06
  1.1359E-06
  1.1359E-06
  1.1359E-06
  1.1359E-06
  4.2366E-06
  4.2366E-06
  4.2366E-06
  4.2366E-06
  4.2366E-06
  4.2366E-06
  4.2366E-06
  4.2366E-06
  4.2366E-06
  1.5819E-05
  1.5819E-05
  1.5819E-05
  1.5819E-05
  1.5819E-05
  1.5819E-05
  1.5819E-05
  1.5819E-05
  1.5819E-05
  5.9048E-05
  5.9048E-05
  5.9048E-05
  5.9048E-05
  5.9048E-05
  5.9048E-05
  5.9048E-05
  5.9048E-05
  5.9048E-05
  2.2038E-04
  2.2038E-04
  2.2038E-04
  2.2038E-04
  2.2038E-04
  2.2038E-04
  2.2038E-04
  2.2038E-04
  2.2038E-04
  8.2248E-04
  8.2248E-04
  8.2248E-04
  8.2248E-04
  8.2248E-04
  8.2248E-04
  8.2248E-04
  8.2248E-04
  8.2248E-04
  3.0696E-03
  3.0696E-03
  3.0696E-03
  3.0696E-03
  3.0696E-03
  3.0696E-03
  3.0696E-03
  3.0696E-03
  3.0696E-03
  1.1456E-02
  1.1456E-02
  1.1456E-02
  1.1456E-02
  1.1456E-02
  1.1456E-02
  1.1456E-02
  1.1456E-02
  1.1456E-02
  1.8070E-02
  1.8070E-02
  1.8070E-02
  1.8070E-02
  1.8070E-02
  1.8070E-02
  1.8070E-02
  1.8070E-02
  1.8070E-02
   3.3000E-03
  5.9056E-18
  7.2846E-18
  8.6635E-18
  2.9528E-18
  4.7975E-18
  6.6422E-18
  0.0000E+00
  2.3105E-18
  4.6210E-18
  1.5978E-17
  2.1051E-17
  2.6125E-17
  7.9890E-18
  1.4300E-17
  2.0611E-17
  0.0000E+00
  7.5489E-18
  1.5098E-17
  6.2873E-17
  8.4864E-17
  1.0686E-16
  3.1436E-17
  5.7894E-17
  8.4352E-17
  0.0000E+00
  3.0925E-17
  6.1849E-17
  2.3543E-16
  3.1923E-16
  4.0304E-16
  1.1772E-16
  2.1818E-16
  3.1865E-16
  0.0000E+00
  1.1713E-16
  2.3427E-16
  8.7897E-16
  1.1910E-15
  1.5030E-15
  4.3948E-16
  8.1517E-16
  1.1909E-15
  0.0000E+00
  4.3938E-16
  8.7875E-16
  3.2814E-15
  4.4433E-15
  5.6051E-15
  1.6407E-15
  3.0423E-15
  4.4440E-15
  0.0000E+00
  1.6414E-15
  3.2828E-15
  1.2247E-14
  1.6577E-14
  2.0908E-14
  6.1234E-15
  1.1351E-14
  1.6579E-14
  0.0000E+00
  6.1249E-15
  1.2250E-14
  1.5252E-09
  1.5252E-09
  1.5252E-09
  1.5252E-09
  1.5252E-09
  1.5252E-09
  1.5252E-09
  1.5252E-09
  1.5252E-09
  6.1009E-09
  6.1009E-09
  6.1009E-09
  6.1009E-09
  6.1009E-09
  6.1009E-09
  6.1010E-09
  6.1009E-09
  6.1009E-09
  2.2878E-08
  2.2878E-08
  2.2878E-08
  2.2879E-08
  2.2878E-08
  2.2878E-08
  2.2879E-08
  2.2879E-08
  2.2878E-08
  8.8463E-08
  8.8463E-08
  8.8463E-08
  8.8464E-08
  8.8463E-08
  8.8463E-08
  8.8464E-08
  8.8464E-08
  8.8463E-08
  3.2640E-07
  3.2640E-07
  3.2640E-07
  3.2640E-07
  3.2640E-07
  3.2640E-07
  3.2640E-07
  3.2640E-07
  3.2640E-07
  1.2080E-06
  1.2080E-06
  1.2080E-06
  1.2080E-06
  1.2080E-06
  1.2080E-06
  1.2080E-06
  1.2080E-06
  1.2080E-06
  4.5055E-06
  4.5055E-06
  4.5055E-06
  4.5055E-06
  4.5055E-06
  4.5055E-06
  4.5055E-06
  4.5055E-06
  4.5055E-06
  1.6823E-05
  1.6823E-05
  1.6823E-05
  1.6823E-05
  1.6823E-05
  1.6823E-05
  1.6823E-05
  1.6823E-05
  1.6823E-05
  6.2796E-05
  6.2796E-05
  6.2796E-05
  6.2796E-05
  6.2796E-05
  6.2796E-05
  6.2796E-05
  6.2796E-05
  6.2796E-05
  2.3437E-04
  2.3437E-04
  2.3437E-04
  2.3437E-04
  2.3437E-04
  2.3437E-04
  2.3437E-04
  2.3437E-04
  2.3437E-04
  8.7468E-04
  8.7468E-04
  8.7468E-04
  8.7468E-04
  8.7468E-04
  8.7468E-04
  8.7468E-04
  8.7468E-04
  8.7468E-04
  3.2644E-03
  3.2644E-03
  3.2644E-03
  3.2644E-03
  3.2644E-03
  3.2644E-03
  3.2644E-03
  3.2644E-03
  3.2644E-03
  1.2183E-02
  1.2183E-02
  1.2183E-02
  1.2183E-02
  1.2183E-02
  1.2183E-02
  1.2183E-02
  1.2183E-02
  1.2183E-02
  1.9217E-02
  1.9217E-02
  1.9217E-02
  1.9217E-02
  1.9217E-02
  1.9217E-02
  1.9217E-02
  1.9217E-02
  1.9217E-02
   3.4000E-03
  6.6087E-18
  8.1777E-18
  9.7468E-18
  3.3043E-18
  5.3905E-18
  7.4766E-18
  0.0000E+00
  2.6032E-18
  5.2064E-18
  1.7984E-17
  2.3722E-17
  2.9460E-17
  8.9918E-18
  1.6117E-17
  2.3243E-17
  0.0000E+00
  8.5130E-18
  1.7026E-17
  7.0835E-17
  9.5624E-17
  1.2041E-16
  3.5417E-17
  6.5248E-17
  9.5079E-17
  0.0000E+00
  3.4872E-17
  6.9744E-17
  2.6527E-16
  3.5966E-16
  4.5404E-16
  1.3264E-16
  2.4584E-16
  3.5904E-16
  0.0000E+00
  1.3202E-16
  2.6403E-16
  9.9036E-16
  1.3418E-15
  1.6933E-15
  4.9518E-16
  9.1844E-16
  1.3417E-15
  0.0000E+00
  4.9507E-16
  9.9013E-16
  3.6972E-15
  5.0062E-15
  6.3152E-15
  1.8486E-15
  3.4278E-15
  5.0069E-15
  0.0000E+00
  1.8493E-15
  3.6987E-15
  1.3799E-14
  1.8678E-14
  2.3557E-14
  6.8993E-15
  1.2789E-14
  1.8679E-14
  0.0000E+00
  6.9009E-15
  1.3802E-14
  1.6191E-09
  1.6191E-09
  1.6191E-09
  1.6191E-09
  1.6191E-09
  1.6191E-09
  1.6191E-09
  1.6191E-09
  1.6191E-09
  6.4763E-09
  6.4763E-09
  6.4762E-09
  6.4763E-09
  6.4763E-09
  6.4763E-09
  6.4763E-09
  6.4763E-09
  6.4763E-09
  2.4286E-08
  2.4286E-08
  2.4286E-08
  2.4286E-08
  2.4286E-08
  2.4286E-08
  2.4286E-08
  2.4286E-08
  2.4286E-08
  9.3906E-08
  9.3906E-08
  9.3906E-08
  9.3906E-08
  9.3906E-08
  9.3906E-08
  9.3907E-08
  9.3906E-08
  9.3906E-08
  3.4648E-07
  3.4648E-07
  3.4648E-07
  3.4648E-07
  3.4648E-07
  3.4648E-07
  3.4648E-07
  3.4648E-07
  3.4648E-07
  1.2823E-06
  1.2823E-06
  1.2823E-06
  1.2823E-06
  1.2823E-06
  1.2823E-06
  1.2823E-06
  1.2823E-06
  1.2823E-06
  4.7827E-06
  4.7827E-06
  4.7827E-06
  4.7827E-06
  4.7827E-06
  4.7827E-06
  4.7827E-06
  4.7827E-06
  4.7827E-06
  1.7858E-05
  1.7858E-05
  1.7858E-05
  1.7858E-05
  1.7858E-05
  1.7858E-05
  1.7858E-05
  1.7858E-05
  1.7858E-05
  6.6659E-05
  6.6659E-05
  6.6659E-05
  6.6659E-05
  6.6659E-05
  6.6659E-05
  6.6659E-05
  6.6659E-05
  6.6659E-05
  2.4879E-04
  2.4879E-04
  2.4879E-04
  2.4879E-04
  2.4879E-04
  2.4879E-04
  2.4879E-04
  2.4879E-04
  2.4879E-04
  9.2849E-04
  9.2849E-04
  9.2849E-04
  9.2849E-04
  9.2849E-04
  9.2849E-04
  9.2849E-04
  9.2849E-04
  9.2849E-04
  3.4652E-03
  3.4652E-03
  3.4652E-03
  3.4652E-03
  3.4652E-03
  3.4652E-03
  3.4652E-03
  3.4652E-03
  3.4652E-03
  1.2933E-02
  1.2933E-02
  1.2933E-02
  1.2933E-02
  1.2933E-02
  1.2933E-02
  1.2933E-02
  1.2933E-02
  1.2933E-02
  2.0399E-02
  2.0399E-02
  2.0399E-02
  2.0399E-02
  2.0399E-02
  2.0399E-02
  2.0399E-02
  2.0399E-02
  2.0399E-02
   3.5000E-03
  7.3741E-18
  9.1535E-18
  1.0933E-17
  3.6870E-18
  6.0394E-18
  8.3918E-18
  0.0000E+00
  2.9253E-18
  5.8506E-18
  2.0173E-17
  2.6639E-17
  3.3106E-17
  1.0087E-17
  1.8104E-17
  2.6121E-17
  0.0000E+00
  9.5679E-18
  1.9136E-17
  7.9530E-17
  1.0738E-16
  1.3522E-16
  3.9765E-17
  7.3281E-17
  1.0680E-16
  0.0000E+00
  3.9185E-17
  7.8370E-17
  2.9786E-16
  4.0380E-16
  5.0974E-16
  1.4893E-16
  2.7604E-16
  4.0314E-16
  0.0000E+00
  1.4827E-16
  2.9655E-16
  1.1120E-15
  1.5066E-15
  1.9011E-15
  5.5601E-16
  1.0312E-15
  1.5065E-15
  0.0000E+00
  5.5589E-16
  1.1118E-15
  4.1513E-15
  5.6210E-15
  7.0907E-15
  2.0757E-15
  3.8487E-15
  5.6218E-15
  0.0000E+00
  2.0764E-15
  4.1529E-15
  1.5493E-14
  2.0972E-14
  2.6450E-14
  7.7467E-15
  1.4360E-14
  2.0974E-14
  0.0000E+00
  7.7484E-15
  1.5497E-14
  1.7157E-09
  1.7157E-09
  1.7157E-09
  1.7157E-09
  1.7157E-09
  1.7157E-09
  1.7157E-09
  1.7157E-09
  1.7157E-09
  6.8628E-09
  6.8628E-09
  6.8628E-09
  6.8629E-09
  6.8628E-09
  6.8628E-09
  6.8629E-09
  6.8629E-09
  6.8628E-09
  2.5736E-08
  2.5736E-08
  2.5735E-08
  2.5736E-08
  2.5736E-08
  2.5736E-08
  2.5736E-08
  2.5736E-08
  2.5736E-08
  9.9511E-08
  9.9511E-08
  9.9511E-08
  9.9512E-08
  9.9511E-08
  9.9511E-08
  9.9512E-08
  9.9512E-08
  9.9511E-08
  3.6716E-07
  3.6716E-07
  3.6716E-07
  3.6716E-07
  3.6716E-07
  3.6716E-07
  3.6716E-07
  3.6716E-07
  3.6716E-07
  1.3588E-06
  1.3588E-06
  1.3588E-06
  1.3588E-06
  1.3588E-06
  1.3588E-06
  1.3589E-06
  1.3588E-06
  1.3588E-06
  5.0682E-06
  5.0682E-06
  5.0682E-06
  5.0682E-06
  5.0682E-06
  5.0682E-06
  5.0682E-06
  5.0682E-06
  5.0682E-06
  1.8924E-05
  1.8924E-05
  1.8924E-05
  1.8924E-05
  1.8924E-05
  1.8924E-05
  1.8924E-05
  1.8924E-05
  1.8924E-05
  7.0638E-05
  7.0638E-05
  7.0638E-05
  7.0638E-05
  7.0638E-05
  7.0638E-05
  7.0638E-05
  7.0638E-05
  7.0638E-05
  2.6363E-04
  2.6363E-04
  2.6363E-04
  2.6363E-04
  2.6363E-04
  2.6363E-04
  2.6363E-04
  2.6363E-04
  2.6363E-04
  9.8391E-04
  9.8391E-04
  9.8391E-04
  9.8391E-04
  9.8391E-04
  9.8391E-04
  9.8391E-04
  9.8391E-04
  9.8391E-04
  3.6721E-03
  3.6721E-03
  3.6721E-03
  3.6721E-03
  3.6721E-03
  3.6721E-03
  3.6721E-03
  3.6721E-03
  3.6721E-03
  1.3704E-02
  1.3704E-02
  1.3704E-02
  1.3704E-02
  1.3704E-02
  1.3704E-02
  1.3704E-02
  1.3704E-02
  1.3704E-02
  2.1617E-02
  2.1617E-02
  2.1617E-02
  2.1617E-02
  2.1617E-02
  2.1617E-02
  2.1617E-02
  2.1617E-02
  2.1617E-02
   3.6000E-03
  8.2054E-18
  1.0217E-17
  1.2228E-17
  4.1027E-18
  6.7478E-18
  9.3930E-18
  0.0000E+00
  3.2788E-18
  6.5576E-18
  2.2557E-17
  2.9820E-17
  3.7082E-17
  1.1279E-17
  2.0269E-17
  2.9260E-17
  0.0000E+00
  1.0719E-17
  2.1438E-17
  8.9004E-17
  1.2018E-16
  1.5136E-16
  4.4502E-17
  8.2034E-17
  1.1957E-16
  0.0000E+00
  4.3886E-17
  8.7772E-17
  3.3336E-16
  4.5189E-16
  5.7042E-16
  1.6668E-16
  3.0894E-16
  4.5120E-16
  0.0000E+00
  1.6599E-16
  3.3197E-16
  1.2446E-15
  1.6861E-15
  2.1276E-15
  6.2229E-16
  1.1541E-15
  1.6859E-15
  0.0000E+00
  6.2216E-16
  1.2443E-15
  4.6461E-15
  6.2908E-15
  7.9355E-15
  2.3230E-15
  4.3073E-15
  6.2916E-15
  0.0000E+00
  2.3239E-15
  4.6477E-15
  1.7340E-14
  2.3471E-14
  2.9602E-14
  8.6699E-15
  1.6071E-14
  2.3473E-14
  0.0000E+00
  8.6718E-15
  1.7344E-14
  1.8152E-09
  1.8151E-09
  1.8151E-09
  1.8152E-09
  1.8152E-09
  1.8151E-09
  1.8152E-09
  1.8152E-09
  1.8152E-09
  7.2606E-09
  7.2605E-09
  7.2605E-09
  7.2606E-09
  7.2606E-09
  7.2605E-09
  7.2607E-09
  7.2606E-09
  7.2606E-09
  2.7227E-08
  2.7227E-08
  2.7227E-08
  2.7227E-08
  2.7227E-08
  2.7227E-08
  2.7227E-08
  2.7227E-08
  2.7227E-08
  1.0528E-07
  1.0528E-07
  1.0528E-07
  1.0528E-07
  1.0528E-07
  1.0528E-07
  1.0528E-07
  1.0528E-07
  1.0528E-07
  3.8844E-07
  3.8844E-07
  3.8844E-07
  3.8844E-07
  3.8844E-07
  3.8844E-07
  3.8844E-07
  3.8844E-07
  3.8844E-07
  1.4376E-06
  1.4376E-06
  1.4376E-06
  1.4376E-06
  1.4376E-06
  1.4376E-06
  1.4376E-06
  1.4376E-06
  1.4376E-06
  5.3619E-06
  5.3619E-06
  5.3619E-06
  5.3620E-06
  5.3619E-06
  5.3619E-06
  5.3620E-06
  5.3620E-06
  5.3619E-06
  2.0021E-05
  2.0021E-05
  2.0021E-05
  2.0021E-05
  2.0021E-05
  2.0021E-05
  2.0021E-05
  2.0021E-05
  2.0021E-05
  7.4732E-05
  7.4732E-05
  7.4732E-05
  7.4732E-05
  7.4732E-05
  7.4732E-05
  7.4732E-05
  7.4732E-05
  7.4732E-05
  2.7891E-04
  2.7891E-04
  2.7891E-04
  2.7891E-04
  2.7891E-04
  2.7891E-04
  2.7891E-04
  2.7891E-04
  2.7891E-04
  1.0409E-03
  1.0409E-03
  1.0409E-03
  1.0409E-03
  1.0409E-03
  1.0409E-03
  1.0409E-03
  1.0409E-03
  1.0409E-03
  3.8849E-03
  3.8849E-03
  3.8849E-03
  3.8849E-03
  3.8849E-03
  3.8849E-03
  3.8849E-03
  3.8849E-03
  3.8849E-03
  1.4499E-02
  1.4499E-02
  1.4499E-02
  1.4499E-02
  1.4499E-02
  1.4499E-02
  1.4499E-02
  1.4499E-02
  1.4499E-02
  2.2870E-02
  2.2870E-02
  2.2870E-02
  2.2870E-02
  2.2870E-02
  2.2870E-02
  2.2870E-02
  2.2870E-02
  2.2870E-02
   3.7000E-03
  9.1064E-18
  1.1373E-17
  1.3639E-17
  4.5532E-18
  7.5192E-18
  1.0485E-17
  0.0000E+00
  3.6655E-18
  7.3310E-18
  2.5148E-17
  3.3277E-17
  4.1407E-17
  1.2574E-17
  2.2625E-17
  3.2676E-17
  0.0000E+00
  1.1972E-17
  2.3945E-17
  9.9299E-17
  1.3410E-16
  1.6890E-16
  4.9650E-17
  9.1549E-17
  1.3345E-16
  0.0000E+00
  4.8997E-17
  9.7994E-17
  3.7195E-16
  5.0416E-16
  6.3637E-16
  1.8597E-16
  3.4470E-16
  5.0343E-16
  0.0000E+00
  1.8524E-16
  3.7048E-16
  1.3886E-15
  1.8811E-15
  2.3737E-15
  6.9432E-16
  1.2877E-15
  1.8810E-15
  0.0000E+00
  6.9418E-16
  1.3884E-15
  5.1838E-15
  7.0187E-15
  8.8536E-15
  2.5919E-15
  4.8057E-15
  7.0196E-15
  0.0000E+00
  2.5928E-15
  5.1855E-15
  1.9347E-14
  2.6188E-14
  3.3028E-14
  9.6734E-15
  1.7931E-14
  2.6189E-14
  0.0000E+00
  9.6753E-15
  1.9351E-14
  1.9174E-09
  1.9174E-09
  1.9174E-09
  1.9174E-09
  1.9174E-09
  1.9174E-09
  1.9174E-09
  1.9174E-09
  1.9174E-09
  7.6695E-09
  7.6695E-09
  7.6695E-09
  7.6696E-09
  7.6695E-09
  7.6695E-09
  7.6696E-09
  7.6696E-09
  7.6695E-09
  2.8761E-08
  2.8761E-08
  2.8761E-08
  2.8761E-08
  2.8761E-08
  2.8761E-08
  2.8761E-08
  2.8761E-08
  2.8761E-08
  1.1121E-07
  1.1121E-07
  1.1121E-07
  1.1121E-07
  1.1121E-07
  1.1121E-07
  1.1121E-07
  1.1121E-07
  1.1121E-07
  4.1032E-07
  4.1032E-07
  4.1032E-07
  4.1032E-07
  4.1032E-07
  4.1032E-07
  4.1032E-07
  4.1032E-07
  4.1032E-07
  1.5186E-06
  1.5186E-06
  1.5186E-06
  1.5186E-06
  1.5186E-06
  1.5186E-06
  1.5186E-06
  1.5186E-06
  1.5186E-06
  5.6640E-06
  5.6640E-06
  5.6640E-06
  5.6640E-06
  5.6640E-06
  5.6640E-06
  5.6640E-06
  5.6640E-06
  5.6640E-06
  2.1148E-05
  2.1148E-05
  2.1148E-05
  2.1148E-05
  2.1148E-05
  2.1148E-05
  2.1148E-05
  2.1148E-05
  2.1148E-05
  7.8941E-05
  7.8941E-05
  7.8941E-05
  7.8941E-05
  7.8941E-05
  7.8941E-05
  7.8941E-05
  7.8941E-05
  7.8941E-05
  2.9462E-04
  2.9462E-04
  2.9462E-04
  2.9462E-04
  2.9462E-04
  2.9462E-04
  2.9462E-04
  2.9462E-04
  2.9462E-04
  1.0996E-03
  1.0996E-03
  1.0996E-03
  1.0996E-03
  1.0996E-03
  1.0996E-03
  1.0996E-03
  1.0996E-03
  1.0996E-03
  4.1037E-03
  4.1037E-03
  4.1037E-03
  4.1037E-03
  4.1037E-03
  4.1037E-03
  4.1037E-03
  4.1037E-03
  4.1037E-03
  1.5315E-02
  1.5315E-02
  1.5315E-02
  1.5315E-02
  1.5315E-02
  1.5315E-02
  1.5315E-02
  1.5315E-02
  1.5315E-02
  2.4158E-02
  2.4158E-02
  2.4158E-02
  2.4158E-02
  2.4158E-02
  2.4158E-02
  2.4158E-02
  2.4158E-02
  2.4158E-02
   3.8000E-03
  1.0081E-17
  1.2627E-17
  1.5173E-17
  5.0405E-18
  8.3571E-18
  1.1674E-17
  0.0000E+00
  4.0874E-18
  8.1747E-18
  2.7956E-17
  3.7029E-17
  4.6101E-17
  1.3978E-17
  2.5181E-17
  3.6384E-17
  0.0000E+00
  1.3333E-17
  2.6666E-17
  1.1046E-16
  1.4919E-16
  1.8792E-16
  5.5232E-17
  1.0187E-16
  1.4850E-16
  0.0000E+00
  5.4542E-17
  1.0908E-16
  4.1379E-16
  5.6084E-16
  7.0788E-16
  2.0690E-16
  3.8348E-16
  5.6006E-16
  0.0000E+00
  2.0612E-16
  4.1224E-16
  1.5449E-15
  2.0927E-15
  2.6405E-15
  7.7243E-16
  1.4325E-15
  2.0925E-15
  0.0000E+00
  7.7229E-16
  1.5446E-15
  5.7669E-15
  7.8081E-15
  9.8493E-15
  2.8834E-15
  5.3462E-15
  7.8090E-15
  0.0000E+00
  2.8844E-15
  5.7687E-15
  2.1523E-14
  2.9133E-14
  3.6743E-14
  1.0761E-14
  1.9948E-14
  2.9135E-14
  0.0000E+00
  1.0763E-14
  2.1527E-14
  2.0224E-09
  2.0224E-09
  2.0224E-09
  2.0224E-09
  2.0224E-09
  2.0224E-09
  2.0225E-09
  2.0224E-09
  2.0224E-09
  8.0897E-09
  8.0897E-09
  8.0896E-09
  8.0898E-09
  8.0897E-09
  8.0897E-09
  8.0898E-09
  8.0898E-09
  8.0897E-09
  3.0336E-08
  3.0336E-08
  3.0336E-08
  3.0337E-08
  3.0336E-08
  3.0336E-08
  3.0337E-08
  3.0337E-08
  3.0336E-08
  1.1730E-07
  1.1730E-07
  1.1730E-07
  1.1730E-07
  1.1730E-07
  1.1730E-07
  1.1730E-07
  1.1730E-07
  1.1730E-07
  4.3280E-07
  4.3280E-07
  4.3280E-07
  4.3280E-07
  4.3280E-07
  4.3280E-07
  4.3280E-07
  4.3280E-07
  4.3280E-07
  1.6018E-06
  1.6018E-06
  1.6018E-06
  1.6018E-06
  1.6018E-06
  1.6018E-06
  1.6018E-06
  1.6018E-06
  1.6018E-06
  5.9743E-06
  5.9743E-06
  5.9743E-06
  5.9743E-06
  5.9743E-06
  5.9743E-06
  5.9743E-06
  5.9743E-06
  5.9743E-06
  2.2307E-05
  2.2307E-05
  2.2307E-05
  2.2307E-05
  2.2307E-05
  2.2307E-05
  2.2307E-05
  2.2307E-05
  2.2307E-05
  8.3265E-05
  8.3265E-05
  8.3265E-05
  8.3265E-05
  8.3265E-05
  8.3265E-05
  8.3265E-05
  8.3265E-05
  8.3265E-05
  3.1076E-04
  3.1076E-04
  3.1076E-04
  3.1076E-04
  3.1076E-04
  3.1076E-04
  3.1076E-04
  3.1076E-04
  3.1076E-04
  1.1598E-03
  1.1598E-03
  1.1598E-03
  1.1598E-03
  1.1598E-03
  1.1598E-03
  1.1598E-03
  1.1598E-03
  1.1598E-03
  4.3285E-03
  4.3285E-03
  4.3285E-03
  4.3285E-03
  4.3285E-03
  4.3285E-03
  4.3285E-03
  4.3285E-03
  4.3285E-03
  1.6154E-02
  1.6154E-02
  1.6154E-02
  1.6154E-02
  1.6154E-02
  1.6154E-02
  1.6154E-02
  1.6154E-02
  1.6154E-02
  2.5481E-02
  2.5481E-02
  2.5481E-02
  2.5481E-02
  2.5481E-02
  2.5481E-02
  2.5481E-02
  2.5481E-02
  2.5481E-02
   3.9000E-03
  1.1133E-17
  1.3984E-17
  1.6835E-17
  5.5665E-18
  9.2653E-18
  1.2964E-17
  0.0000E+00
  4.5465E-18
  9.0929E-18
  3.0993E-17
  4.1089E-17
  5.1185E-17
  1.5497E-17
  2.7948E-17
  4.0400E-17
  0.0000E+00
  1.4808E-17
  2.9616E-17
  1.2254E-16
  1.6553E-16
  2.0851E-16
  6.1272E-17
  1.1303E-16
  1.6480E-16
  0.0000E+00
  6.0543E-17
  1.2109E-16
  4.5907E-16
  6.2217E-16
  7.8526E-16
  2.2954E-16
  4.2544E-16
  6.2135E-16
  0.0000E+00
  2.2872E-16
  4.5744E-16
  1.7139E-15
  2.3216E-15
  2.9293E-15
  8.5695E-16
  1.5892E-15
  2.3214E-15
  0.0000E+00
  8.5680E-16
  1.7136E-15
  6.3979E-15
  8.6623E-15
  1.0927E-14
  3.1989E-15
  5.9311E-15
  8.6633E-15
  0.0000E+00
  3.1999E-15
  6.3998E-15
  2.3878E-14
  3.2321E-14
  4.0764E-14
  1.1939E-14
  2.2131E-14
  3.2323E-14
  0.0000E+00
  1.1941E-14
  2.3882E-14
  2.1303E-09
  2.1303E-09
  2.1303E-09
  2.1303E-09
  2.1303E-09
  2.1303E-09
  2.1303E-09
  2.1303E-09
  2.1303E-09
  8.5211E-09
  8.5211E-09
  8.5210E-09
  8.5211E-09
  8.5211E-09
  8.5211E-09
  8.5212E-09
  8.5211E-09
  8.5211E-09
  3.1954E-08
  3.1954E-08
  3.1954E-08
  3.1954E-08
  3.1954E-08
  3.1954E-08
  3.1954E-08
  3.1954E-08
  3.1954E-08
  1.2356E-07
  1.2356E-07
  1.2356E-07
  1.2356E-07
  1.2356E-07
  1.2356E-07
  1.2356E-07
  1.2356E-07
  1.2356E-07
  4.5588E-07
  4.5588E-07
  4.5588E-07
  4.5588E-07
  4.5588E-07
  4.5588E-07
  4.5588E-07
  4.5588E-07
  4.5588E-07
  1.6872E-06
  1.6872E-06
  1.6872E-06
  1.6872E-06
  1.6872E-06
  1.6872E-06
  1.6872E-06
  1.6872E-06
  1.6872E-06
  6.2928E-06
  6.2928E-06
  6.2928E-06
  6.2928E-06
  6.2928E-06
  6.2928E-06
  6.2928E-06
  6.2928E-06
  6.2928E-06
  2.3496E-05
  2.3496E-05
  2.3496E-05
  2.3496E-05
  2.3496E-05
  2.3496E-05
  2.3496E-05
  2.3496E-05
  2.3496E-05
  8.7705E-05
  8.7705E-05
  8.7705E-05
  8.7705E-05
  8.7705E-05
  8.7705E-05
  8.7705E-05
  8.7705E-05
  8.7705E-05
  3.2733E-04
  3.2733E-04
  3.2733E-04
  3.2733E-04
  3.2733E-04
  3.2733E-04
  3.2733E-04
  3.2733E-04
  3.2733E-04
  1.2216E-03
  1.2216E-03
  1.2216E-03
  1.2216E-03
  1.2216E-03
  1.2216E-03
  1.2216E-03
  1.2216E-03
  1.2216E-03
  4.5593E-03
  4.5593E-03
  4.5593E-03
  4.5593E-03
  4.5593E-03
  4.5593E-03
  4.5593E-03
  4.5593E-03
  4.5593E-03
  1.7016E-02
  1.7016E-02
  1.7016E-02
  1.7016E-02
  1.7016E-02
  1.7016E-02
  1.7016E-02
  1.7016E-02
  1.7016E-02
  2.6840E-02
  2.6840E-02
  2.6840E-02
  2.6840E-02
  2.6840E-02
  2.6840E-02
  2.6840E-02
  2.6840E-02
  2.6840E-02
   4.0000E-03
  1.2267E-17
  1.5450E-17
  1.8633E-17
  6.1334E-18
  1.0247E-17
  1.4361E-17
  0.0000E+00
  5.0448E-18
  1.0090E-17
  3.4273E-17
  4.5476E-17
  5.6678E-17
  1.7136E-17
  3.0939E-17
  4.4742E-17
  0.0000E+00
  1.6402E-17
  3.2805E-17
  1.3559E-16
  1.8317E-16
  2.3074E-16
  6.7795E-17
  1.2510E-16
  1.8240E-16
  0.0000E+00
  6.7027E-17
  1.3405E-16
  5.0797E-16
  6.8839E-16
  8.6882E-16
  2.5399E-16
  4.7076E-16
  6.8754E-16
  0.0000E+00
  2.5313E-16
  5.0626E-16
  1.8965E-15
  2.5688E-15
  3.2411E-15
  9.4823E-16
  1.7584E-15
  2.5686E-15
  0.0000E+00
  9.4808E-16
  1.8962E-15
  7.0793E-15
  9.5847E-15
  1.2090E-14
  3.5396E-15
  6.5627E-15
  9.5858E-15
  0.0000E+00
  3.5407E-15
  7.0813E-15
  2.6421E-14
  3.5763E-14
  4.5105E-14
  1.3210E-14
  2.4488E-14
  3.5765E-14
  0.0000E+00
  1.3213E-14
  2.6425E-14
  2.2409E-09
  2.2409E-09
  2.2409E-09
  2.2409E-09
  2.2409E-09
  2.2409E-09
  2.2409E-09
  2.2409E-09
  2.2409E-09
  8.9637E-09
  8.9636E-09
  8.9636E-09
  8.9637E-09
  8.9637E-09
  8.9636E-09
  8.9638E-09
  8.9637E-09
  8.9637E-09
  3.3614E-08
  3.3614E-08
  3.3613E-08
  3.3614E-08
  3.3614E-08
  3.3614E-08
  3.3614E-08
  3.3614E-08
  3.3614E-08
  1.2997E-07
  1.2997E-07
  1.2997E-07
  1.2997E-07
  1.2997E-07
  1.2997E-07
  1.2997E-07
  1.2997E-07
  1.2997E-07
  4.7956E-07
  4.7956E-07
  4.7955E-07
  4.7956E-07
  4.7956E-07
  4.7956E-07
  4.7956E-07
  4.7956E-07
  4.7956E-07
  1.7748E-06
  1.7748E-06
  1.7748E-06
  1.7748E-06
  1.7748E-06
  1.7748E-06
  1.7748E-06
  1.7748E-06
  1.7748E-06
  6.6197E-06
  6.6197E-06
  6.6197E-06
  6.6197E-06
  6.6197E-06
  6.6197E-06
  6.6197E-06
  6.6197E-06
  6.6197E-06
  2.4716E-05
  2.4716E-05
  2.4716E-05
  2.4716E-05
  2.4716E-05
  2.4716E-05
  2.4716E-05
  2.4716E-05
  2.4716E-05
  9.2259E-05
  9.2259E-05
  9.2259E-05
  9.2259E-05
  9.2259E-05
  9.2259E-05
  9.2259E-05
  9.2259E-05
  9.2259E-05
  3.4433E-04
  3.4433E-04
  3.4433E-04
  3.4433E-04
  3.4433E-04
  3.4433E-04
  3.4433E-04
  3.4433E-04
  3.4433E-04
  1.2851E-03
  1.2851E-03
  1.2851E-03
  1.2851E-03
  1.2851E-03
  1.2851E-03
  1.2851E-03
  1.2851E-03
  1.2851E-03
  4.7961E-03
  4.7961E-03
  4.7961E-03
  4.7961E-03
  4.7961E-03
  4.7961E-03
  4.7961E-03
  4.7961E-03
  4.7961E-03
  1.7900E-02
  1.7900E-02
  1.7900E-02
  1.7900E-02
  1.7900E-02
  1.7900E-02
  1.7900E-02
  1.7900E-02
  1.7900E-02
  2.8234E-02
  2.8234E-02
  2.8234E-02
  2.8234E-02
  2.8234E-02
  2.8234E-02
  2.8234E-02
  2.8234E-02
  2.8234E-02
   4.1000E-03
  1.3486E-17
  1.7030E-17
  2.0575E-17
  6.7431E-18
  1.1307E-17
  1.5872E-17
  0.0000E+00
  5.5844E-18
  1.1169E-17
  3.7806E-17
  5.0205E-17
  6.2604E-17
  1.8903E-17
  3.4164E-17
  4.9425E-17
  0.0000E+00
  1.8123E-17
  3.6246E-17
  1.4965E-16
  2.0218E-16
  2.5470E-16
  7.4826E-17
  1.3810E-16
  2.0137E-16
  0.0000E+00
  7.4016E-17
  1.4803E-16
  5.6068E-16
  7.5978E-16
  9.5887E-16
  2.8034E-16
  5.1961E-16
  7.5887E-16
  0.0000E+00
  2.7944E-16
  5.5887E-16
  2.0932E-15
  2.8352E-15
  3.5772E-15
  1.0466E-15
  1.9408E-15
  2.8350E-15
  0.0000E+00
  1.0465E-15
  2.0929E-15
  7.8137E-15
  1.0579E-14
  1.3344E-14
  3.9069E-15
  7.2435E-15
  1.0580E-14
  0.0000E+00
  3.9079E-15
  7.8159E-15
  2.9162E-14
  3.9473E-14
  4.9784E-14
  1.4581E-14
  2.7028E-14
  3.9475E-14
  0.0000E+00
  1.4583E-14
  2.9167E-14
  2.3544E-09
  2.3544E-09
  2.3543E-09
  2.3544E-09
  2.3544E-09
  2.3544E-09
  2.3544E-09
  2.3544E-09
  2.3544E-09
  9.4174E-09
  9.4174E-09
  9.4173E-09
  9.4175E-09
  9.4174E-09
  9.4174E-09
  9.4176E-09
  9.4175E-09
  9.4174E-09
  3.5316E-08
  3.5315E-08
  3.5315E-08
  3.5316E-08
  3.5316E-08
  3.5315E-08
  3.5316E-08
  3.5316E-08
  3.5316E-08
  1.3655E-07
  1.3655E-07
  1.3655E-07
  1.3655E-07
  1.3655E-07
  1.3655E-07
  1.3655E-07
  1.3655E-07
  1.3655E-07
  5.0384E-07
  5.0383E-07
  5.0383E-07
  5.0384E-07
  5.0384E-07
  5.0383E-07
  5.0384E-07
  5.0384E-07
  5.0384E-07
  1.8647E-06
  1.8647E-06
  1.8647E-06
  1.8647E-06
  1.8647E-06
  1.8647E-06
  1.8647E-06
  1.8647E-06
  1.8647E-06
  6.9548E-06
  6.9548E-06
  6.9548E-06
  6.9548E-06
  6.9548E-06
  6.9548E-06
  6.9548E-06
  6.9548E-06
  6.9548E-06
  2.5968E-05
  2.5968E-05
  2.5968E-05
  2.5968E-05
  2.5968E-05
  2.5968E-05
  2.5968E-05
  2.5968E-05
  2.5968E-05
  9.6930E-05
  9.6930E-05
  9.6930E-05
  9.6930E-05
  9.6930E-05
  9.6930E-05
  9.6930E-05
  9.6930E-05
  9.6930E-05
  3.6176E-04
  3.6176E-04
  3.6176E-04
  3.6176E-04
  3.6176E-04
  3.6176E-04
  3.6176E-04
  3.6176E-04
  3.6176E-04
  1.3501E-03
  1.3501E-03
  1.3501E-03
  1.3501E-03
  1.3501E-03
  1.3501E-03
  1.3501E-03
  1.3501E-03
  1.3501E-03
  5.0389E-03
  5.0389E-03
  5.0389E-03
  5.0389E-03
  5.0389E-03
  5.0389E-03
  5.0389E-03
  5.0389E-03
  5.0389E-03
  1.8806E-02
  1.8806E-02
  1.8806E-02
  1.8806E-02
  1.8806E-02
  1.8806E-02
  1.8806E-02
  1.8806E-02
  1.8806E-02
  2.9663E-02
  2.9663E-02
  2.9663E-02
  2.9663E-02
  2.9663E-02
  2.9663E-02
  2.9663E-02
  2.9663E-02
  2.9663E-02
   4.2000E-03
  1.4796E-17
  1.8731E-17
  2.2666E-17
  7.3979E-18
  1.2449E-17
  1.7501E-17
  0.0000E+00
  6.1675E-18
  1.2335E-17
  4.1607E-17
  5.5294E-17
  6.8982E-17
  2.0803E-17
  3.7635E-17
  5.4467E-17
  0.0000E+00
  1.9976E-17
  3.9952E-17
  1.6478E-16
  2.2263E-16
  2.8049E-16
  8.2390E-17
  1.5209E-16
  2.2178E-16
  0.0000E+00
  8.1539E-17
  1.6308E-16
  6.1738E-16
  8.3657E-16
  1.0558E-15
  3.0869E-16
  5.7216E-16
  8.3562E-16
  0.0000E+00
  3.0774E-16
  6.1549E-16
  2.3049E-15
  3.1219E-15
  3.9388E-15
  1.1525E-15
  2.1371E-15
  3.1217E-15
  0.0000E+00
  1.1523E-15
  2.3046E-15
  8.6039E-15
  1.1649E-14
  1.4693E-14
  4.3020E-15
  7.9759E-15
  1.1650E-14
  0.0000E+00
  4.3031E-15
  8.6062E-15
  3.2111E-14
  4.3465E-14
  5.4819E-14
  1.6055E-14
  2.9761E-14
  4.3467E-14
  0.0000E+00
  1.6058E-14
  3.2116E-14
  2.4706E-09
  2.4706E-09
  2.4706E-09
  2.4706E-09
  2.4706E-09
  2.4706E-09
  2.4706E-09
  2.4706E-09
  2.4706E-09
  9.8824E-09
  9.8824E-09
  9.8823E-09
  9.8825E-09
  9.8824E-09
  9.8824E-09
  9.8826E-09
  9.8825E-09
  9.8824E-09
  3.7059E-08
  3.7059E-08
  3.7059E-08
  3.7059E-08
  3.7059E-08
  3.7059E-08
  3.7060E-08
  3.7059E-08
  3.7059E-08
  1.4330E-07
  1.4330E-07
  1.4329E-07
  1.4330E-07
  1.4330E-07
  1.4330E-07
  1.4330E-07
  1.4330E-07
  1.4330E-07
  5.2871E-07
  5.2871E-07
  5.2871E-07
  5.2871E-07
  5.2871E-07
  5.2871E-07
  5.2872E-07
  5.2871E-07
  5.2871E-07
  1.9567E-06
  1.9567E-06
  1.9567E-06
  1.9567E-06
  1.9567E-06
  1.9567E-06
  1.9567E-06
  1.9567E-06
  1.9567E-06
  7.2982E-06
  7.2982E-06
  7.2982E-06
  7.2982E-06
  7.2982E-06
  7.2982E-06
  7.2982E-06
  7.2982E-06
  7.2982E-06
  2.7250E-05
  2.7250E-05
  2.7250E-05
  2.7250E-05
  2.7250E-05
  2.7250E-05
  2.7250E-05
  2.7250E-05
  2.7250E-05
  1.0172E-04
  1.0172E-04
  1.0172E-04
  1.0172E-04
  1.0172E-04
  1.0172E-04
  1.0172E-04
  1.0172E-04
  1.0172E-04
  3.7962E-04
  3.7962E-04
  3.7962E-04
  3.7962E-04
  3.7962E-04
  3.7962E-04
  3.7962E-04
  3.7962E-04
  3.7962E-04
  1.4168E-03
  1.4168E-03
  1.4168E-03
  1.4168E-03
  1.4168E-03
  1.4168E-03
  1.4168E-03
  1.4168E-03
  1.4168E-03
  5.2877E-03
  5.2877E-03
  5.2877E-03
  5.2877E-03
  5.2877E-03
  5.2877E-03
  5.2877E-03
  5.2877E-03
  5.2877E-03
  1.9734E-02
  1.9734E-02
  1.9734E-02
  1.9734E-02
  1.9734E-02
  1.9734E-02
  1.9734E-02
  1.9734E-02
  1.9734E-02
  3.1128E-02
  3.1128E-02
  3.1128E-02
  3.1128E-02
  3.1128E-02
  3.1128E-02
  3.1128E-02
  3.1128E-02
  3.1128E-02
   4.3000E-03
  1.6200E-17
  2.0558E-17
  2.4916E-17
  8.0999E-18
  1.3677E-17
  1.9254E-17
  0.0000E+00
  6.7963E-18
  1.3593E-17
  4.5688E-17
  6.0762E-17
  7.5836E-17
  2.2844E-17
  4.1365E-17
  5.9886E-17
  0.0000E+00
  2.1968E-17
  4.3936E-17
  1.8103E-16
  2.4460E-16
  3.0818E-16
  9.0513E-17
  1.6711E-16
  2.4371E-16
  0.0000E+00
  8.9620E-17
  1.7924E-16
  6.7829E-16
  9.1905E-16
  1.1598E-15
  3.3914E-16
  6.2860E-16
  9.1806E-16
  0.0000E+00
  3.3815E-16
  6.7630E-16
  2.5323E-15
  3.4297E-15
  4.3271E-15
  1.2662E-15
  2.3478E-15
  3.4295E-15
  0.0000E+00
  1.2660E-15
  2.5319E-15
  9.4526E-15
  1.2797E-14
  1.6142E-14
  4.7263E-15
  8.7625E-15
  1.2799E-14
  0.0000E+00
  4.7275E-15
  9.4549E-15
  3.5278E-14
  4.7752E-14
  6.0226E-14
  1.7639E-14
  3.2697E-14
  4.7755E-14
  0.0000E+00
  1.7642E-14
  3.5283E-14
  2.5897E-09
  2.5897E-09
  2.5896E-09
  2.5897E-09
  2.5897E-09
  2.5897E-09
  2.5897E-09
  2.5897E-09
  2.5897E-09
  1.0359E-08
  1.0359E-08
  1.0358E-08
  1.0359E-08
  1.0359E-08
  1.0359E-08
  1.0359E-08
  1.0359E-08
  1.0359E-08
  3.8845E-08
  3.8845E-08
  3.8844E-08
  3.8845E-08
  3.8845E-08
  3.8845E-08
  3.8845E-08
  3.8845E-08
  3.8845E-08
  1.5020E-07
  1.5020E-07
  1.5020E-07
  1.5020E-07
  1.5020E-07
  1.5020E-07
  1.5020E-07
  1.5020E-07
  1.5020E-07
  5.5419E-07
  5.5419E-07
  5.5418E-07
  5.5419E-07
  5.5419E-07
  5.5419E-07
  5.5419E-07
  5.5419E-07
  5.5419E-07
  2.0510E-06
  2.0510E-06
  2.0510E-06
  2.0510E-06
  2.0510E-06
  2.0510E-06
  2.0510E-06
  2.0510E-06
  2.0510E-06
  7.6498E-06
  7.6498E-06
  7.6498E-06
  7.6498E-06
  7.6498E-06
  7.6498E-06
  7.6499E-06
  7.6498E-06
  7.6498E-06
  2.8563E-05
  2.8563E-05
  2.8563E-05
  2.8563E-05
  2.8563E-05
  2.8563E-05
  2.8563E-05
  2.8563E-05
  2.8563E-05
  1.0662E-04
  1.0662E-04
  1.0662E-04
  1.0662E-04
  1.0662E-04
  1.0662E-04
  1.0662E-04
  1.0662E-04
  1.0662E-04
  3.9791E-04
  3.9791E-04
  3.9791E-04
  3.9791E-04
  3.9791E-04
  3.9791E-04
  3.9791E-04
  3.9791E-04
  3.9791E-04
  1.4851E-03
  1.4851E-03
  1.4851E-03
  1.4851E-03
  1.4851E-03
  1.4851E-03
  1.4851E-03
  1.4851E-03
  1.4851E-03
  5.5425E-03
  5.5425E-03
  5.5425E-03
  5.5425E-03
  5.5425E-03
  5.5425E-03
  5.5425E-03
  5.5425E-03
  5.5425E-03
  2.0685E-02
  2.0685E-02
  2.0685E-02
  2.0685E-02
  2.0685E-02
  2.0685E-02
  2.0685E-02
  2.0685E-02
  2.0685E-02
  3.2628E-02
  3.2628E-02
  3.2628E-02
  3.2628E-02
  3.2628E-02
  3.2628E-02
  3.2628E-02
  3.2628E-02
  3.2628E-02
   4.4000E-03
  1.7703E-17
  2.2517E-17
  2.7331E-17
  8.8514E-18
  1.4995E-17
  2.1139E-17
  0.0000E+00
  7.4730E-18
  1.4946E-17
  5.0063E-17
  6.6626E-17
  8.3190E-17
  2.5031E-17
  4.5366E-17
  6.5701E-17
  0.0000E+00
  2.4106E-17
  4.8212E-17
  1.9845E-16
  2.6816E-16
  3.3788E-16
  9.9224E-17
  1.8322E-16
  2.6723E-16
  0.0000E+00
  9.8286E-17
  1.9657E-16
  7.4359E-16
  1.0075E-15
  1.2714E-15
  3.7179E-16
  6.8912E-16
  1.0064E-15
  0.0000E+00
  3.7075E-16
  7.4151E-16
  2.7761E-15
  3.7598E-15
  4.7435E-15
  1.3881E-15
  2.5738E-15
  3.7596E-15
  0.0000E+00
  1.3879E-15
  2.7757E-15
  1.0363E-14
  1.4029E-14
  1.7696E-14
  5.1813E-15
  9.6059E-15
  1.4031E-14
  0.0000E+00
  5.1825E-15
  1.0365E-14
  3.8674E-14
  5.2349E-14
  6.6023E-14
  1.9337E-14
  3.5844E-14
  5.2351E-14
  0.0000E+00
  1.9340E-14
  3.8680E-14
  2.7115E-09
  2.7115E-09
  2.7115E-09
  2.7115E-09
  2.7115E-09
  2.7115E-09
  2.7115E-09
  2.7115E-09
  2.7115E-09
  1.0846E-08
  1.0846E-08
  1.0846E-08
  1.0846E-08
  1.0846E-08
  1.0846E-08
  1.0846E-08
  1.0846E-08
  1.0846E-08
  4.0673E-08
  4.0672E-08
  4.0672E-08
  4.0673E-08
  4.0673E-08
  4.0672E-08
  4.0673E-08
  4.0673E-08
  4.0673E-08
  1.5727E-07
  1.5727E-07
  1.5727E-07
  1.5727E-07
  1.5727E-07
  1.5727E-07
  1.5727E-07
  1.5727E-07
  1.5727E-07
  5.8026E-07
  5.8026E-07
  5.8026E-07
  5.8027E-07
  5.8026E-07
  5.8026E-07
  5.8027E-07
  5.8027E-07
  5.8026E-07
  2.1475E-06
  2.1475E-06
  2.1475E-06
  2.1475E-06
  2.1475E-06
  2.1475E-06
  2.1475E-06
  2.1475E-06
  2.1475E-06
  8.0098E-06
  8.0098E-06
  8.0098E-06
  8.0098E-06
  8.0098E-06
  8.0098E-06
  8.0098E-06
  8.0098E-06
  8.0098E-06
  2.9907E-05
  2.9907E-05
  2.9907E-05
  2.9906E-05
  2.9907E-05
  2.9907E-05
  2.9906E-05
  2.9906E-05
  2.9907E-05
  1.1163E-04
  1.1163E-04
  1.1163E-04
  1.1163E-04
  1.1163E-04
  1.1163E-04
  1.1163E-04
  1.1163E-04
  1.1163E-04
  4.1663E-04
  4.1663E-04
  4.1663E-04
  4.1663E-04
  4.1663E-04
  4.1663E-04
  4.1663E-04
  4.1663E-04
  4.1663E-04
  1.5549E-03
  1.5549E-03
  1.5549E-03
  1.5549E-03
  1.5549E-03
  1.5549E-03
  1.5549E-03
  1.5549E-03
  1.5549E-03
  5.8033E-03
  5.8033E-03
  5.8033E-03
  5.8033E-03
  5.8033E-03
  5.8033E-03
  5.8033E-03
  5.8033E-03
  5.8033E-03
  2.1658E-02
  2.1658E-02
  2.1658E-02
  2.1658E-02
  2.1658E-02
  2.1658E-02
  2.1658E-02
  2.1658E-02
  2.1658E-02
  3.4163E-02
  3.4163E-02
  3.4163E-02
  3.4163E-02
  3.4163E-02
  3.4163E-02
  3.4163E-02
  3.4163E-02
  3.4163E-02
   4.5000E-03
  1.9309E-17
  2.4615E-17
  2.9920E-17
  9.6546E-18
  1.6407E-17
  2.3160E-17
  0.0000E+00
  8.1998E-18
  1.6400E-17
  5.4745E-17
  7.2905E-17
  9.1066E-17
  2.7372E-17
  4.9651E-17
  7.1929E-17
  0.0000E+00
  2.6396E-17
  5.2793E-17
  2.1710E-16
  2.9338E-16
  3.6967E-16
  1.0855E-16
  2.0047E-16
  2.9240E-16
  0.0000E+00
  1.0757E-16
  2.1513E-16
  8.1349E-16
  1.1022E-15
  1.3908E-15
  4.0675E-16
  7.5391E-16
  1.1011E-15
  0.0000E+00
  4.0566E-16
  8.1132E-16
  3.0371E-15
  4.1132E-15
  5.1892E-15
  1.5185E-15
  2.8158E-15
  4.1130E-15
  0.0000E+00
  1.5183E-15
  3.0367E-15
  1.1337E-14
  1.5348E-14
  1.9359E-14
  5.6683E-15
  1.0509E-14
  1.5349E-14
  0.0000E+00
  5.6696E-15
  1.1339E-14
  4.2310E-14
  5.7270E-14
  7.2229E-14
  2.1155E-14
  3.9214E-14
  5.7272E-14
  0.0000E+00
  2.1158E-14
  4.2316E-14
  2.8362E-09
  2.8362E-09
  2.8362E-09
  2.8362E-09
  2.8362E-09
  2.8362E-09
  2.8362E-09
  2.8362E-09
  2.8362E-09
  1.1345E-08
  1.1345E-08
  1.1344E-08
  1.1345E-08
  1.1345E-08
  1.1345E-08
  1.1345E-08
  1.1345E-08
  1.1345E-08
  4.2542E-08
  4.2542E-08
  4.2542E-08
  4.2543E-08
  4.2542E-08
  4.2542E-08
  4.2543E-08
  4.2543E-08
  4.2542E-08
  1.6450E-07
  1.6450E-07
  1.6450E-07
  1.6450E-07
  1.6450E-07
  1.6450E-07
  1.6450E-07
  1.6450E-07
  1.6450E-07
  6.0694E-07
  6.0694E-07
  6.0693E-07
  6.0694E-07
  6.0694E-07
  6.0694E-07
  6.0695E-07
  6.0694E-07
  6.0694E-07
  2.2462E-06
  2.2462E-06
  2.2462E-06
  2.2463E-06
  2.2462E-06
  2.2462E-06
  2.2463E-06
  2.2463E-06
  2.2462E-06
  8.3780E-06
  8.3780E-06
  8.3780E-06
  8.3780E-06
  8.3780E-06
  8.3780E-06
  8.3780E-06
  8.3780E-06
  8.3780E-06
  3.1281E-05
  3.1281E-05
  3.1281E-05
  3.1281E-05
  3.1281E-05
  3.1281E-05
  3.1281E-05
  3.1281E-05
  3.1281E-05
  1.1676E-04
  1.1676E-04
  1.1676E-04
  1.1676E-04
  1.1676E-04
  1.1676E-04
  1.1676E-04
  1.1676E-04
  1.1676E-04
  4.3578E-04
  4.3578E-04
  4.3578E-04
  4.3578E-04
  4.3578E-04
  4.3578E-04
  4.3578E-04
  4.3578E-04
  4.3578E-04
  1.6264E-03
  1.6264E-03
  1.6264E-03
  1.6264E-03
  1.6264E-03
  1.6264E-03
  1.6264E-03
  1.6264E-03
  1.6264E-03
  6.0700E-03
  6.0700E-03
  6.0700E-03
  6.0700E-03
  6.0700E-03
  6.0700E-03
  6.0700E-03
  6.0700E-03
  6.0700E-03
  2.2654E-02
  2.2654E-02
  2.2654E-02
  2.2654E-02
  2.2654E-02
  2.2654E-02
  2.2654E-02
  2.2654E-02
  2.2654E-02
  3.5734E-02
  3.5734E-02
  3.5734E-02
  3.5734E-02
  3.5734E-02
  3.5734E-02
  3.5734E-02
  3.5734E-02
  3.5734E-02
   4.6000E-03
  2.1024E-17
  2.6857E-17
  3.2690E-17
  1.0512E-17
  1.7918E-17
  2.5324E-17
  0.0000E+00
  8.9792E-18
  1.7958E-17
  5.9749E-17
  7.9618E-17
  9.9488E-17
  2.9874E-17
  5.4233E-17
  7.8591E-17
  0.0000E+00
  2.8847E-17
  5.7694E-17
  2.3703E-16
  3.2034E-16
  4.0365E-16
  1.1852E-16
  2.1891E-16
  3.1931E-16
  0.0000E+00
  1.1749E-16
  2.3497E-16
  8.8822E-16
  1.2033E-15
  1.5185E-15
  4.4411E-16
  8.2316E-16
  1.2022E-15
  0.0000E+00
  4.4297E-16
  8.8595E-16
  3.3161E-15
  4.4909E-15
  5.6657E-15
  1.6580E-15
  3.0743E-15
  4.4907E-15
  0.0000E+00
  1.6578E-15
  3.3157E-15
  1.2378E-14
  1.6758E-14
  2.1137E-14
  6.1890E-15
  1.1474E-14
  1.6759E-14
  0.0000E+00
  6.1903E-15
  1.2381E-14
  4.6196E-14
  6.2530E-14
  7.8863E-14
  2.3098E-14
  4.2815E-14
  6.2533E-14
  0.0000E+00
  2.3101E-14
  4.6202E-14
  2.9636E-09
  2.9636E-09
  2.9636E-09
  2.9636E-09
  2.9636E-09
  2.9636E-09
  2.9636E-09
  2.9636E-09
  2.9636E-09
  1.1854E-08
  1.1854E-08
  1.1854E-08
  1.1854E-08
  1.1854E-08
  1.1854E-08
  1.1855E-08
  1.1854E-08
  1.1854E-08
  4.4454E-08
  4.4454E-08
  4.4454E-08
  4.4454E-08
  4.4454E-08
  4.4454E-08
  4.4455E-08
  4.4454E-08
  4.4454E-08
  1.7189E-07
  1.7189E-07
  1.7189E-07
  1.7189E-07
  1.7189E-07
  1.7189E-07
  1.7189E-07
  1.7189E-07
  1.7189E-07
  6.3421E-07
  6.3421E-07
  6.3421E-07
  6.3422E-07
  6.3421E-07
  6.3421E-07
  6.3422E-07
  6.3422E-07
  6.3421E-07
  2.3472E-06
  2.3472E-06
  2.3472E-06
  2.3472E-06
  2.3472E-06
  2.3472E-06
  2.3472E-06
  2.3472E-06
  2.3472E-06
  8.7545E-06
  8.7545E-06
  8.7545E-06
  8.7545E-06
  8.7545E-06
  8.7545E-06
  8.7545E-06
  8.7545E-06
  8.7545E-06
  3.2687E-05
  3.2687E-05
  3.2687E-05
  3.2687E-05
  3.2687E-05
  3.2687E-05
  3.2687E-05
  3.2687E-05
  3.2687E-05
  1.2201E-04
  1.2201E-04
  1.2201E-04
  1.2201E-04
  1.2201E-04
  1.2201E-04
  1.2201E-04
  1.2201E-04
  1.2201E-04
  4.5537E-04
  4.5537E-04
  4.5537E-04
  4.5537E-04
  4.5537E-04
  4.5537E-04
  4.5537E-04
  4.5537E-04
  4.5537E-04
  1.6995E-03
  1.6995E-03
  1.6995E-03
  1.6995E-03
  1.6995E-03
  1.6995E-03
  1.6995E-03
  1.6995E-03
  1.6995E-03
  6.3428E-03
  6.3428E-03
  6.3428E-03
  6.3428E-03
  6.3428E-03
  6.3428E-03
  6.3428E-03
  6.3428E-03
  6.3428E-03
  2.3672E-02
  2.3672E-02
  2.3672E-02
  2.3672E-02
  2.3672E-02
  2.3672E-02
  2.3672E-02
  2.3672E-02
  2.3672E-02
  3.7339E-02
  3.7339E-02
  3.7339E-02
  3.7339E-02
  3.7339E-02
  3.7339E-02
  3.7339E-02
  3.7339E-02
  3.7339E-02
   4.7000E-03
  2.2852E-17
  2.9251E-17
  3.5650E-17
  1.1426E-17
  1.9532E-17
  2.7638E-17
  0.0000E+00
  9.8135E-18
  1.9627E-17
  6.5089E-17
  8.6785E-17
  1.0848E-16
  3.2544E-17
  5.9125E-17
  8.5705E-17
  0.0000E+00
  3.1464E-17
  6.2928E-17
  2.5831E-16
  3.4912E-16
  4.3993E-16
  1.2915E-16
  2.3860E-16
  3.4804E-16
  0.0000E+00
  1.2808E-16
  2.5616E-16
  9.6798E-16
  1.3113E-15
  1.6547E-15
  4.8399E-16
  8.9708E-16
  1.3102E-15
  0.0000E+00
  4.8280E-16
  9.6560E-16
  3.6138E-15
  4.8940E-15
  6.1742E-15
  1.8069E-15
  3.3504E-15
  4.8938E-15
  0.0000E+00
  1.8067E-15
  3.6134E-15
  1.3489E-14
  1.8262E-14
  2.3035E-14
  6.7447E-15
  1.2504E-14
  1.8263E-14
  0.0000E+00
  6.7461E-15
  1.3492E-14
  5.0344E-14
  6.8144E-14
  8.5944E-14
  2.5172E-14
  4.6660E-14
  6.8147E-14
  0.0000E+00
  2.5175E-14
  5.0350E-14
  3.0939E-09
  3.0939E-09
  3.0938E-09
  3.0939E-09
  3.0939E-09
  3.0939E-09
  3.0939E-09
  3.0939E-09
  3.0939E-09
  1.2375E-08
  1.2375E-08
  1.2375E-08
  1.2375E-08
  1.2375E-08
  1.2375E-08
  1.2376E-08
  1.2375E-08
  1.2375E-08
  4.6408E-08
  4.6408E-08
  4.6407E-08
  4.6408E-08
  4.6408E-08
  4.6408E-08
  4.6409E-08
  4.6408E-08
  4.6408E-08
  1.7944E-07
  1.7944E-07
  1.7944E-07
  1.7945E-07
  1.7944E-07
  1.7944E-07
  1.7945E-07
  1.7945E-07
  1.7944E-07
  6.6209E-07
  6.6208E-07
  6.6208E-07
  6.6209E-07
  6.6209E-07
  6.6208E-07
  6.6209E-07
  6.6209E-07
  6.6209E-07
  2.4503E-06
  2.4503E-06
  2.4503E-06
  2.4504E-06
  2.4503E-06
  2.4503E-06
  2.4504E-06
  2.4504E-06
  2.4503E-06
  9.1392E-06
  9.1392E-06
  9.1392E-06
  9.1392E-06
  9.1392E-06
  9.1392E-06
  9.1392E-06
  9.1392E-06
  9.1392E-06
  3.4123E-05
  3.4123E-05
  3.4123E-05
  3.4123E-05
  3.4123E-05
  3.4123E-05
  3.4123E-05
  3.4123E-05
  3.4123E-05
  1.2737E-04
  1.2737E-04
  1.2737E-04
  1.2737E-04
  1.2737E-04
  1.2737E-04
  1.2737E-04
  1.2737E-04
  1.2737E-04
  4.7538E-04
  4.7538E-04
  4.7538E-04
  4.7538E-04
  4.7538E-04
  4.7538E-04
  4.7538E-04
  4.7538E-04
  4.7538E-04
  1.7742E-03
  1.7742E-03
  1.7742E-03
  1.7742E-03
  1.7742E-03
  1.7742E-03
  1.7742E-03
  1.7742E-03
  1.7742E-03
  6.6216E-03
  6.6216E-03
  6.6216E-03
  6.6216E-03
  6.6216E-03
  6.6216E-03
  6.6216E-03
  6.6216E-03
  6.6216E-03
  2.4712E-02
  2.4712E-02
  2.4712E-02
  2.4712E-02
  2.4712E-02
  2.4712E-02
  2.4712E-02
  2.4712E-02
  2.4712E-02
  3.8980E-02
  3.8980E-02
  3.8980E-02
  3.8980E-02
  3.8980E-02
  3.8980E-02
  3.8980E-02
  3.8980E-02
  3.8980E-02
   4.8000E-03
  2.4797E-17
  3.1802E-17
  3.8807E-17
  1.2399E-17
  2.1254E-17
  3.0109E-17
  0.0000E+00
  1.0705E-17
  2.1410E-17
  7.0780E-17
  9.4425E-17
  1.1807E-16
  3.5390E-17
  6.4341E-17
  9.3291E-17
  0.0000E+00
  3.4256E-17
  6.8512E-17
  2.8098E-16
  3.7979E-16
  4.7860E-16
  1.4049E-16
  2.5958E-16
  3.7867E-16
  0.0000E+00
  1.3937E-16
  2.7874E-16
  1.0530E-15
  1.4265E-15
  1.7999E-15
  5.2650E-16
  9.7586E-16
  1.4252E-15
  0.0000E+00
  5.2526E-16
  1.0505E-15
  3.9312E-15
  5.3237E-15
  6.7162E-15
  1.9656E-15
  3.6446E-15
  5.3235E-15
  0.0000E+00
  1.9654E-15
  3.9308E-15
  1.4674E-14
  1.9866E-14
  2.5057E-14
  7.3370E-15
  1.3602E-14
  1.9867E-14
  0.0000E+00
  7.3384E-15
  1.4677E-14
  5.4765E-14
  7.4128E-14
  9.3492E-14
  2.7382E-14
  5.0757E-14
  7.4132E-14
  0.0000E+00
  2.7386E-14
  5.4771E-14
  3.2269E-09
  3.2269E-09
  3.2269E-09
  3.2269E-09
  3.2269E-09
  3.2269E-09
  3.2270E-09
  3.2269E-09
  3.2269E-09
  1.2908E-08
  1.2908E-08
  1.2907E-08
  1.2908E-08
  1.2908E-08
  1.2908E-08
  1.2908E-08
  1.2908E-08
  1.2908E-08
  4.8404E-08
  4.8403E-08
  4.8403E-08
  4.8404E-08
  4.8404E-08
  4.8403E-08
  4.8404E-08
  4.8404E-08
  4.8404E-08
  1.8716E-07
  1.8716E-07
  1.8716E-07
  1.8716E-07
  1.8716E-07
  1.8716E-07
  1.8716E-07
  1.8716E-07
  1.8716E-07
  6.9056E-07
  6.9056E-07
  6.9055E-07
  6.9057E-07
  6.9056E-07
  6.9056E-07
  6.9057E-07
  6.9057E-07
  6.9056E-07
  2.5557E-06
  2.5557E-06
  2.5557E-06
  2.5557E-06
  2.5557E-06
  2.5557E-06
  2.5558E-06
  2.5557E-06
  2.5557E-06
  9.5323E-06
  9.5323E-06
  9.5323E-06
  9.5323E-06
  9.5323E-06
  9.5323E-06
  9.5323E-06
  9.5323E-06
  9.5323E-06
  3.5591E-05
  3.5591E-05
  3.5591E-05
  3.5591E-05
  3.5591E-05
  3.5591E-05
  3.5591E-05
  3.5591E-05
  3.5591E-05
  1.3285E-04
  1.3285E-04
  1.3285E-04
  1.3285E-04
  1.3285E-04
  1.3285E-04
  1.3285E-04
  1.3285E-04
  1.3285E-04
  4.9582E-04
  4.9582E-04
  4.9582E-04
  4.9582E-04
  4.9582E-04
  4.9582E-04
  4.9582E-04
  4.9582E-04
  4.9582E-04
  1.8505E-03
  1.8505E-03
  1.8505E-03
  1.8505E-03
  1.8505E-03
  1.8505E-03
  1.8505E-03
  1.8505E-03
  1.8505E-03
  6.9063E-03
  6.9063E-03
  6.9063E-03
  6.9063E-03
  6.9063E-03
  6.9063E-03
  6.9063E-03
  6.9063E-03
  6.9063E-03
  2.5775E-02
  2.5775E-02
  2.5775E-02
  2.5775E-02
  2.5775E-02
  2.5775E-02
  2.5775E-02
  2.5775E-02
  2.5775E-02
  4.0657E-02
  4.0657E-02
  4.0657E-02
  4.0657E-02
  4.0657E-02
  4.0657E-02
  4.0657E-02
  4.0657E-02
  4.0657E-02
   4.9000E-03
  2.6866E-17
  3.4519E-17
  4.2172E-17
  1.3433E-17
  2.3088E-17
  3.2743E-17
  0.0000E+00
  1.1657E-17
  2.3314E-17
  7.6836E-17
  1.0256E-16
  1.2828E-16
  3.8418E-17
  6.9895E-17
  1.0137E-16
  0.0000E+00
  3.7230E-17
  7.4459E-17
  3.0512E-16
  4.1244E-16
  5.1976E-16
  1.5256E-16
  2.8192E-16
  4.1127E-16
  0.0000E+00
  1.5139E-16
  3.0278E-16
  1.1435E-15
  1.5490E-15
  1.9545E-15
  5.7174E-16
  1.0597E-15
  1.5477E-15
  0.0000E+00
  5.7045E-16
  1.1409E-15
  4.2691E-15
  5.7811E-15
  7.2932E-15
  2.1345E-15
  3.9577E-15
  5.7809E-15
  0.0000E+00
  2.1343E-15
  4.2686E-15
  1.5935E-14
  2.1573E-14
  2.7210E-14
  7.9675E-15
  1.4771E-14
  2.1574E-14
  0.0000E+00
  7.9690E-15
  1.5938E-14
  5.9471E-14
  8.0498E-14
  1.0153E-13
  2.9735E-14
  5.5119E-14
  8.0502E-14
  0.0000E+00
  2.9739E-14
  5.9478E-14
  3.3628E-09
  3.3628E-09
  3.3628E-09
  3.3628E-09
  3.3628E-09
  3.3628E-09
  3.3628E-09
  3.3628E-09
  3.3628E-09
  1.3451E-08
  1.3451E-08
  1.3451E-08
  1.3451E-08
  1.3451E-08
  1.3451E-08
  1.3451E-08
  1.3451E-08
  1.3451E-08
  5.0441E-08
  5.0441E-08
  5.0441E-08
  5.0442E-08
  5.0441E-08
  5.0441E-08
  5.0442E-08
  5.0442E-08
  5.0441E-08
  1.9504E-07
  1.9504E-07
  1.9504E-07
  1.9504E-07
  1.9504E-07
  1.9504E-07
  1.9504E-07
  1.9504E-07
  1.9504E-07
  7.1963E-07
  7.1963E-07
  7.1963E-07
  7.1964E-07
  7.1963E-07
  7.1963E-07
  7.1964E-07
  7.1964E-07
  7.1963E-07
  2.6633E-06
  2.6633E-06
  2.6633E-06
  2.6633E-06
  2.6633E-06
  2.6633E-06
  2.6633E-06
  2.6633E-06
  2.6633E-06
  9.9335E-06
  9.9335E-06
  9.9335E-06
  9.9335E-06
  9.9335E-06
  9.9335E-06
  9.9335E-06
  9.9335E-06
  9.9335E-06
  3.7089E-05
  3.7089E-05
  3.7089E-05
  3.7089E-05
  3.7089E-05
  3.7089E-05
  3.7089E-05
  3.7089E-05
  3.7089E-05
  1.3844E-04
  1.3844E-04
  1.3844E-04
  1.3844E-04
  1.3844E-04
  1.3844E-04
  1.3844E-04
  1.3844E-04
  1.3844E-04
  5.1669E-04
  5.1669E-04
  5.1669E-04
  5.1669E-04
  5.1669E-04
  5.1669E-04
  5.1669E-04
  5.1669E-04
  5.1669E-04
  1.9284E-03
  1.9284E-03
  1.9284E-03
  1.9284E-03
  1.9284E-03
  1.9284E-03
  1.9284E-03
  1.9284E-03
  1.9284E-03
  7.1971E-03
  7.1971E-03
  7.1971E-03
  7.1971E-03
  7.1971E-03
  7.1971E-03
  7.1971E-03
  7.1971E-03
  7.1971E-03
  2.6860E-02
  2.6860E-02
  2.6860E-02
  2.6860E-02
  2.6860E-02
  2.6860E-02
  2.6860E-02
  2.6860E-02
  2.6860E-02
  4.2368E-02
  4.2368E-02
  4.2368E-02
  4.2368E-02
  4.2368E-02
  4.2368E-02
  4.2368E-02
  4.2368E-02
  4.2368E-02
   5.0000E-03
  2.9063E-17
  3.7407E-17
  4.5751E-17
  1.4531E-17
  2.5039E-17
  3.5547E-17
  0.0000E+00
  1.2671E-17
  2.5342E-17
  8.3274E-17
  1.1121E-16
  1.3914E-16
  4.1637E-17
  7.5801E-17
  1.0996E-16
  0.0000E+00
  4.0393E-17
  8.0785E-17
  3.3079E-16
  4.4715E-16
  5.6352E-16
  1.6539E-16
  3.0566E-16
  4.4593E-16
  0.0000E+00
  1.6417E-16
  3.2834E-16
  1.2397E-15
  1.6793E-15
  2.1189E-15
  6.1985E-16
  1.1489E-15
  1.6779E-15
  0.0000E+00
  6.1850E-16
  1.2370E-15
  4.6283E-15
  6.2674E-15
  7.9066E-15
  2.3141E-15
  4.2906E-15
  6.2672E-15
  0.0000E+00
  2.3139E-15
  4.6278E-15
  1.7276E-14
  2.3387E-14
  2.9499E-14
  8.6378E-15
  1.6013E-14
  2.3389E-14
  0.0000E+00
  8.6393E-15
  1.7279E-14
  1.3344E-13
  1.5046E-13
  1.6749E-13
  6.6718E-14
  1.0859E-13
  1.5046E-13
  0.0000E+00
  6.6721E-14
  1.3344E-13
  3.5016E-09
  3.5016E-09
  3.5016E-09
  3.5015E-09
  3.5015E-09
  3.5016E-09
  3.5015E-09
  3.5015E-09
  3.5016E-09
  1.4006E-08
  1.4006E-08
  1.4005E-08
  1.4006E-08
  1.4006E-08
  1.4006E-08
  1.4006E-08
  1.4006E-08
  1.4006E-08
  5.2521E-08
  5.2521E-08
  5.2520E-08
  5.2522E-08
  5.2521E-08
  5.2521E-08
  5.2522E-08
  5.2522E-08
  5.2521E-08
  2.0308E-07
  2.0308E-07
  2.0308E-07
  2.0308E-07
  2.0308E-07
  2.0308E-07
  2.0309E-07
  2.0308E-07
  2.0308E-07
  7.4931E-07
  7.4930E-07
  7.4930E-07
  7.4931E-07
  7.4931E-07
  7.4930E-07
  7.4932E-07
  7.4931E-07
  7.4931E-07
  2.7731E-06
  2.7731E-06
  2.7731E-06
  2.7732E-06
  2.7731E-06
  2.7731E-06
  2.7732E-06
  2.7732E-06
  2.7731E-06
  1.0343E-05
  1.0343E-05
  1.0343E-05
  1.0343E-05
  1.0343E-05
  1.0343E-05
  1.0343E-05
  1.0343E-05
  1.0343E-05
  3.8618E-05
  3.8618E-05
  3.8618E-05
  3.8618E-05
  3.8618E-05
  3.8618E-05
  3.8618E-05
  3.8618E-05
  3.8618E-05
  1.4415E-04
  1.4415E-04
  1.4415E-04
  1.4415E-04
  1.4415E-04
  1.4415E-04
  1.4415E-04
  1.4415E-04
  1.4415E-04
  5.3799E-04
  5.3799E-04
  5.3799E-04
  5.3799E-04
  5.3799E-04
  5.3799E-04
  5.3799E-04
  5.3799E-04
  5.3799E-04
  2.0079E-03
  2.0079E-03
  2.0079E-03
  2.0079E-03
  2.0079E-03
  2.0079E-03
  2.0079E-03
  2.0079E-03
  2.0079E-03
  7.4938E-03
  7.4938E-03
  7.4938E-03
  7.4938E-03
  7.4938E-03
  7.4938E-03
  7.4938E-03
  7.4938E-03
  7.4938E-03
  2.7968E-02
  2.7968E-02
  2.7968E-02
  2.7968E-02
  2.7968E-02
  2.7968E-02
  2.7968E-02
  2.7968E-02
  2.7968E-02
  4.4115E-02
  4.4115E-02
  4.4115E-02
  4.4115E-02
  4.4115E-02
  4.4115E-02
  4.4115E-02
  4.4115E-02
  4.4115E-02
   5.1000E-03
  3.1393E-17
  4.0474E-17
  4.9555E-17
  1.5697E-17
  2.7112E-17
  3.8528E-17
  0.0000E+00
  1.3750E-17
  2.7500E-17
  9.0109E-17
  1.2039E-16
  1.5068E-16
  4.5055E-17
  8.2073E-17
  1.1909E-16
  0.0000E+00
  4.3753E-17
  8.7506E-17
  3.5804E-16
  4.8401E-16
  6.0999E-16
  1.7902E-16
  3.3088E-16
  4.8274E-16
  0.0000E+00
  1.7775E-16
  3.5549E-16
  1.3418E-15
  1.8176E-15
  2.2934E-15
  6.7092E-16
  1.2436E-15
  1.8162E-15
  0.0000E+00
  6.6953E-16
  1.3391E-15
  5.0096E-15
  6.7837E-15
  8.5579E-15
  2.5048E-15
  4.6442E-15
  6.7835E-15
  0.0000E+00
  2.5046E-15
  5.0091E-15
  1.8699E-14
  2.5314E-14
  3.1929E-14
  9.3495E-15
  1.7333E-14
  2.5316E-14
  0.0000E+00
  9.3511E-15
  1.8702E-14
  1.3774E-13
  1.5638E-13
  1.7503E-13
  6.8868E-14
  1.1263E-13
  1.5639E-13
  0.0000E+00
  6.8871E-14
  1.3774E-13
  3.6430E-09
  3.6430E-09
  3.6430E-09
  3.6430E-09
  3.6430E-09
  3.6430E-09
  3.6429E-09
  3.6430E-09
  3.6430E-09
  1.4571E-08
  1.4571E-08
  1.4571E-08
  1.4572E-08
  1.4571E-08
  1.4571E-08
  1.4572E-08
  1.4572E-08
  1.4571E-08
  5.4643E-08
  5.4643E-08
  5.4642E-08
  5.4644E-08
  5.4643E-08
  5.4643E-08
  5.4644E-08
  5.4644E-08
  5.4643E-08
  2.1129E-07
  2.1129E-07
  2.1128E-07
  2.1129E-07
  2.1129E-07
  2.1129E-07
  2.1129E-07
  2.1129E-07
  2.1129E-07
  7.7958E-07
  7.7957E-07
  7.7957E-07
  7.7958E-07
  7.7958E-07
  7.7957E-07
  7.7959E-07
  7.7958E-07
  7.7958E-07
  2.8852E-06
  2.8852E-06
  2.8851E-06
  2.8852E-06
  2.8852E-06
  2.8852E-06
  2.8852E-06
  2.8852E-06
  2.8852E-06
  1.0761E-05
  1.0761E-05
  1.0761E-05
  1.0761E-05
  1.0761E-05
  1.0761E-05
  1.0761E-05
  1.0761E-05
  1.0761E-05
  4.0178E-05
  4.0178E-05
  4.0178E-05
  4.0178E-05
  4.0178E-05
  4.0178E-05
  4.0178E-05
  4.0178E-05
  4.0178E-05
  1.4997E-04
  1.4997E-04
  1.4997E-04
  1.4997E-04
  1.4997E-04
  1.4997E-04
  1.4997E-04
  1.4997E-04
  1.4997E-04
  5.5972E-04
  5.5972E-04
  5.5972E-04
  5.5972E-04
  5.5972E-04
  5.5972E-04
  5.5972E-04
  5.5972E-04
  5.5972E-04
  2.0890E-03
  2.0890E-03
  2.0890E-03
  2.0890E-03
  2.0890E-03
  2.0890E-03
  2.0890E-03
  2.0890E-03
  2.0890E-03
  7.7965E-03
  7.7965E-03
  7.7965E-03
  7.7965E-03
  7.7965E-03
  7.7965E-03
  7.7965E-03
  7.7965E-03
  7.7965E-03
  2.9098E-02
  2.9098E-02
  2.9098E-02
  2.9098E-02
  2.9098E-02
  2.9098E-02
  2.9098E-02
  2.9098E-02
  2.9098E-02
  4.5897E-02
  4.5897E-02
  4.5897E-02
  4.5897E-02
  4.5897E-02
  4.5897E-02
  4.5897E-02
  4.5897E-02
  4.5897E-02
   5.2000E-03
  3.3862E-17
  4.3727E-17
  5.3593E-17
  1.6931E-17
  2.9312E-17
  4.1693E-17
  0.0000E+00
  1.4897E-17
  2.9794E-17
  9.7357E-17
  1.3014E-16
  1.6292E-16
  4.8679E-17
  8.8728E-17
  1.2878E-16
  0.0000E+00
  4.7319E-17
  9.4638E-17
  3.8694E-16
  5.2310E-16
  6.5927E-16
  1.9347E-16
  3.5762E-16
  5.2178E-16
  0.0000E+00
  1.9214E-16
  3.8429E-16
  1.4502E-15
  1.9643E-15
  2.4784E-15
  7.2509E-16
  1.3440E-15
  1.9628E-15
  0.0000E+00
  7.2364E-16
  1.4473E-15
  5.4141E-15
  7.3313E-15
  9.2486E-15
  2.7071E-15
  5.0191E-15
  7.3311E-15
  0.0000E+00
  2.7068E-15
  5.4136E-15
  2.0209E-14
  2.7358E-14
  3.4507E-14
  1.0104E-14
  1.8732E-14
  2.7359E-14
  0.0000E+00
  1.0106E-14
  2.0212E-14
  1.4237E-13
  1.6275E-13
  1.8314E-13
  7.1183E-14
  1.1697E-13
  1.6275E-13
  0.0000E+00
  7.1186E-14
  1.4237E-13
  3.7873E-09
  3.7873E-09
  3.7873E-09
  3.7872E-09
  3.7873E-09
  3.7873E-09
  3.7872E-09
  3.7872E-09
  3.7873E-09
  1.5149E-08
  1.5148E-08
  1.5148E-08
  1.5149E-08
  1.5149E-08
  1.5148E-08
  1.5149E-08
  1.5149E-08
  1.5149E-08
  5.6807E-08
  5.6806E-08
  5.6806E-08
  5.6807E-08
  5.6807E-08
  5.6806E-08
  5.6808E-08
  5.6807E-08
  5.6807E-08
  2.1965E-07
  2.1965E-07
  2.1965E-07
  2.1966E-07
  2.1965E-07
  2.1965E-07
  2.1966E-07
  2.1966E-07
  2.1965E-07
  8.1045E-07
  8.1044E-07
  8.1044E-07
  8.1045E-07
  8.1045E-07
  8.1044E-07
  8.1046E-07
  8.1045E-07
  8.1045E-07
  2.9994E-06
  2.9994E-06
  2.9994E-06
  2.9994E-06
  2.9994E-06
  2.9994E-06
  2.9995E-06
  2.9994E-06
  2.9994E-06
  1.1187E-05
  1.1187E-05
  1.1187E-05
  1.1187E-05
  1.1187E-05
  1.1187E-05
  1.1187E-05
  1.1187E-05
  1.1187E-05
  4.1768E-05
  4.1768E-05
  4.1768E-05
  4.1768E-05
  4.1768E-05
  4.1768E-05
  4.1768E-05
  4.1768E-05
  4.1768E-05
  1.5591E-04
  1.5591E-04
  1.5591E-04
  1.5591E-04
  1.5591E-04
  1.5591E-04
  1.5591E-04
  1.5591E-04
  1.5591E-04
  5.8189E-04
  5.8189E-04
  5.8189E-04
  5.8189E-04
  5.8189E-04
  5.8189E-04
  5.8189E-04
  5.8189E-04
  5.8189E-04
  2.1717E-03
  2.1717E-03
  2.1717E-03
  2.1717E-03
  2.1717E-03
  2.1717E-03
  2.1717E-03
  2.1717E-03
  2.1717E-03
  8.1053E-03
  8.1053E-03
  8.1053E-03
  8.1053E-03
  8.1053E-03
  8.1053E-03
  8.1053E-03
  8.1053E-03
  8.1053E-03
  3.0250E-02
  3.0250E-02
  3.0250E-02
  3.0250E-02
  3.0250E-02
  3.0250E-02
  3.0250E-02
  3.0250E-02
  3.0250E-02
  4.7715E-02
  4.7715E-02
  4.7715E-02
  4.7715E-02
  4.7715E-02
  4.7715E-02
  4.7715E-02
  4.7715E-02
  4.7715E-02
   5.3000E-03
  3.6475E-17
  4.7174E-17
  5.7873E-17
  1.8237E-17
  3.1644E-17
  4.5050E-17
  0.0000E+00
  1.6114E-17
  3.2228E-17
  1.0503E-16
  1.4046E-16
  1.7588E-16
  5.2517E-17
  9.5779E-17
  1.3904E-16
  0.0000E+00
  5.1099E-17
  1.0220E-16
  4.1755E-16
  5.6452E-16
  7.1148E-16
  2.0877E-16
  3.8596E-16
  5.6314E-16
  0.0000E+00
  2.0740E-16
  4.1480E-16
  1.5650E-15
  2.1197E-15
  2.6745E-15
  7.8248E-16
  1.4503E-15
  2.1182E-15
  0.0000E+00
  7.8097E-16
  1.5619E-15
  5.8426E-15
  7.9115E-15
  9.9803E-15
  2.9213E-15
  5.4162E-15
  7.9112E-15
  0.0000E+00
  2.9210E-15
  5.8420E-15
  2.1808E-14
  2.9523E-14
  3.7237E-14
  1.0904E-14
  2.0214E-14
  2.9524E-14
  0.0000E+00
  1.0906E-14
  2.1811E-14
  1.4734E-13
  1.6959E-13
  1.9184E-13
  7.3669E-14
  1.2163E-13
  1.6959E-13
  0.0000E+00
  7.3672E-14
  1.4734E-13
  3.9343E-09
  3.9343E-09
  3.9343E-09
  3.9343E-09
  3.9343E-09
  3.9343E-09
  3.9343E-09
  3.9343E-09
  3.9343E-09
  1.5737E-08
  1.5737E-08
  1.5736E-08
  1.5737E-08
  1.5737E-08
  1.5737E-08
  1.5737E-08
  1.5737E-08
  1.5737E-08
  5.9013E-08
  5.9012E-08
  5.9012E-08
  5.9013E-08
  5.9013E-08
  5.9012E-08
  5.9014E-08
  5.9013E-08
  5.9013E-08
  2.2818E-07
  2.2818E-07
  2.2818E-07
  2.2819E-07
  2.2818E-07
  2.2818E-07
  2.2819E-07
  2.2819E-07
  2.2818E-07
  8.4192E-07
  8.4191E-07
  8.4191E-07
  8.4192E-07
  8.4192E-07
  8.4191E-07
  8.4193E-07
  8.4192E-07
  8.4192E-07
  3.1159E-06
  3.1159E-06
  3.1159E-06
  3.1159E-06
  3.1159E-06
  3.1159E-06
  3.1159E-06
  3.1159E-06
  3.1159E-06
  1.1621E-05
  1.1621E-05
  1.1621E-05
  1.1621E-05
  1.1621E-05
  1.1621E-05
  1.1621E-05
  1.1621E-05
  1.1621E-05
  4.3390E-05
  4.3390E-05
  4.3390E-05
  4.3390E-05
  4.3390E-05
  4.3390E-05
  4.3390E-05
  4.3390E-05
  4.3390E-05
  1.6196E-04
  1.6196E-04
  1.6196E-04
  1.6196E-04
  1.6196E-04
  1.6196E-04
  1.6196E-04
  1.6196E-04
  1.6196E-04
  6.0448E-04
  6.0448E-04
  6.0448E-04
  6.0448E-04
  6.0448E-04
  6.0448E-04
  6.0448E-04
  6.0448E-04
  6.0448E-04
  2.2560E-03
  2.2560E-03
  2.2560E-03
  2.2560E-03
  2.2560E-03
  2.2560E-03
  2.2560E-03
  2.2560E-03
  2.2560E-03
  8.4200E-03
  8.4200E-03
  8.4200E-03
  8.4200E-03
  8.4200E-03
  8.4200E-03
  8.4200E-03
  8.4200E-03
  8.4200E-03
  3.1424E-02
  3.1424E-02
  3.1424E-02
  3.1424E-02
  3.1424E-02
  3.1424E-02
  3.1424E-02
  3.1424E-02
  3.1424E-02
  4.9568E-02
  4.9568E-02
  4.9568E-02
  4.9568E-02
  4.9568E-02
  4.9568E-02
  4.9568E-02
  4.9568E-02
  4.9568E-02
   5.4000E-03
  3.9238E-17
  5.0821E-17
  6.2405E-17
  1.9619E-17
  3.4113E-17
  4.8607E-17
  0.0000E+00
  1.7405E-17
  3.4809E-17
  1.1316E-16
  1.5138E-16
  1.8961E-16
  5.6579E-17
  1.0324E-16
  1.4990E-16
  0.0000E+00
  5.5100E-17
  1.1020E-16
  4.4995E-16
  6.0834E-16
  7.6673E-16
  2.2497E-16
  4.1594E-16
  6.0691E-16
  0.0000E+00
  2.2354E-16
  4.4709E-16
  1.6864E-15
  2.2842E-15
  2.8819E-15
  8.4321E-16
  1.5629E-15
  2.2826E-15
  0.0000E+00
  8.4164E-16
  1.6833E-15
  6.2961E-15
  8.5253E-15
  1.0755E-14
  3.1480E-15
  5.8365E-15
  8.5250E-15
  0.0000E+00
  3.1477E-15
  6.2955E-15
  2.3500E-14
  3.1814E-14
  4.0127E-14
  1.1750E-14
  2.1783E-14
  3.1815E-14
  0.0000E+00
  1.1752E-14
  2.3504E-14
  1.5267E-13
  1.7692E-13
  2.0117E-13
  7.6336E-14
  1.2663E-13
  1.7693E-13
  0.0000E+00
  7.6340E-14
  1.5268E-13
  4.0842E-09
  4.0842E-09
  4.0842E-09
  4.0842E-09
  4.0842E-09
  4.0842E-09
  4.0841E-09
  4.0842E-09
  4.0842E-09
  1.6336E-08
  1.6336E-08
  1.6336E-08
  1.6336E-08
  1.6336E-08
  1.6336E-08
  1.6336E-08
  1.6336E-08
  1.6336E-08
  6.1261E-08
  6.1260E-08
  6.1260E-08
  6.1261E-08
  6.1261E-08
  6.1260E-08
  6.1262E-08
  6.1261E-08
  6.1261E-08
  2.3688E-07
  2.3687E-07
  2.3687E-07
  2.3688E-07
  2.3688E-07
  2.3687E-07
  2.3688E-07
  2.3688E-07
  2.3688E-07
  8.7399E-07
  8.7398E-07
  8.7398E-07
  8.7400E-07
  8.7399E-07
  8.7398E-07
  8.7400E-07
  8.7400E-07
  8.7399E-07
  3.2346E-06
  3.2346E-06
  3.2345E-06
  3.2346E-06
  3.2346E-06
  3.2346E-06
  3.2346E-06
  3.2346E-06
  3.2346E-06
  1.2064E-05
  1.2064E-05
  1.2064E-05
  1.2064E-05
  1.2064E-05
  1.2064E-05
  1.2064E-05
  1.2064E-05
  1.2064E-05
  4.5043E-05
  4.5043E-05
  4.5043E-05
  4.5043E-05
  4.5043E-05
  4.5043E-05
  4.5043E-05
  4.5043E-05
  4.5043E-05
  1.6813E-04
  1.6813E-04
  1.6813E-04
  1.6813E-04
  1.6813E-04
  1.6813E-04
  1.6813E-04
  1.6813E-04
  1.6813E-04
  6.2750E-04
  6.2750E-04
  6.2750E-04
  6.2750E-04
  6.2750E-04
  6.2750E-04
  6.2750E-04
  6.2750E-04
  6.2750E-04
  2.3420E-03
  2.3420E-03
  2.3420E-03
  2.3420E-03
  2.3420E-03
  2.3420E-03
  2.3420E-03
  2.3420E-03
  2.3420E-03
  8.7407E-03
  8.7407E-03
  8.7407E-03
  8.7407E-03
  8.7407E-03
  8.7407E-03
  8.7407E-03
  8.7407E-03
  8.7407E-03
  3.2621E-02
  3.2621E-02
  3.2621E-02
  3.2621E-02
  3.2621E-02
  3.2621E-02
  3.2621E-02
  3.2621E-02
  3.2621E-02
  5.1456E-02
  5.1456E-02
  5.1456E-02
  5.1456E-02
  5.1456E-02
  5.1456E-02
  5.1456E-02
  5.1456E-02
  5.1456E-02
   5.5000E-03
  4.2156E-17
  5.4677E-17
  6.7199E-17
  2.1078E-17
  3.6724E-17
  5.2370E-17
  0.0000E+00
  1.8771E-17
  3.7542E-17
  1.2174E-16
  1.6293E-16
  2.0412E-16
  6.0872E-17
  1.1113E-16
  1.6139E-16
  0.0000E+00
  5.9332E-17
  1.1866E-16
  4.8419E-16
  6.5467E-16
  8.2514E-16
  2.4210E-16
  4.4764E-16
  6.5318E-16
  0.0000E+00
  2.4061E-16
  4.8122E-16
  1.8148E-15
  2.4580E-15
  3.1012E-15
  9.0741E-16
  1.6819E-15
  2.4564E-15
  0.0000E+00
  9.0578E-16
  1.8116E-15
  6.7754E-15
  9.1743E-15
  1.1573E-14
  3.3877E-15
  6.2808E-15
  9.1740E-15
  0.0000E+00
  3.3874E-15
  6.7748E-15
  2.5289E-14
  3.4235E-14
  4.3181E-14
  1.2645E-14
  2.3441E-14
  3.4237E-14
  0.0000E+00
  1.2647E-14
  2.5293E-14
  1.5839E-13
  1.8477E-13
  2.1115E-13
  7.9193E-14
  1.3198E-13
  1.8477E-13
  0.0000E+00
  7.9197E-14
  1.5839E-13
  4.2369E-09
  4.2368E-09
  4.2368E-09
  4.2368E-09
  4.2368E-09
  4.2368E-09
  4.2368E-09
  4.2368E-09
  4.2369E-09
  1.6947E-08
  1.6947E-08
  1.6946E-08
  1.6947E-08
  1.6947E-08
  1.6947E-08
  1.6947E-08
  1.6947E-08
  1.6947E-08
  6.3551E-08
  6.3550E-08
  6.3549E-08
  6.3551E-08
  6.3551E-08
  6.3550E-08
  6.3552E-08
  6.3551E-08
  6.3551E-08
  2.4573E-07
  2.4573E-07
  2.4573E-07
  2.4573E-07
  2.4573E-07
  2.4573E-07
  2.4573E-07
  2.4573E-07
  2.4573E-07
  9.0666E-07
  9.0665E-07
  9.0665E-07
  9.0666E-07
  9.0666E-07
  9.0665E-07
  9.0667E-07
  9.0666E-07
  9.0666E-07
  3.3555E-06
  3.3555E-06
  3.3554E-06
  3.3555E-06
  3.3555E-06
  3.3555E-06
  3.3555E-06
  3.3555E-06
  3.3555E-06
  1.2515E-05
  1.2515E-05
  1.2515E-05
  1.2515E-05
  1.2515E-05
  1.2515E-05
  1.2515E-05
  1.2515E-05
  1.2515E-05
  4.6726E-05
  4.6726E-05
  4.6726E-05
  4.6726E-05
  4.6726E-05
  4.6726E-05
  4.6726E-05
  4.6726E-05
  4.6726E-05
  1.7441E-04
  1.7441E-04
  1.7441E-04
  1.7441E-04
  1.7441E-04
  1.7441E-04
  1.7441E-04
  1.7441E-04
  1.7441E-04
  6.5095E-04
  6.5095E-04
  6.5095E-04
  6.5095E-04
  6.5095E-04
  6.5095E-04
  6.5095E-04
  6.5095E-04
  6.5095E-04
  2.4295E-03
  2.4295E-03
  2.4295E-03
  2.4295E-03
  2.4295E-03
  2.4295E-03
  2.4295E-03
  2.4295E-03
  2.4295E-03
  9.0674E-03
  9.0674E-03
  9.0674E-03
  9.0674E-03
  9.0674E-03
  9.0674E-03
  9.0674E-03
  9.0674E-03
  9.0674E-03
  3.3841E-02
  3.3841E-02
  3.3841E-02
  3.3841E-02
  3.3841E-02
  3.3841E-02
  3.3841E-02
  3.3841E-02
  3.3841E-02
  5.3379E-02
  5.3379E-02
  5.3379E-02
  5.3379E-02
  5.3379E-02
  5.3379E-02
  5.3379E-02
  5.3379E-02
  5.3379E-02
   5.6000E-03
  4.5235E-17
  5.8749E-17
  7.2264E-17
  2.2617E-17
  3.9483E-17
  5.6349E-17
  0.0000E+00
  2.0216E-17
  4.0433E-17
  1.3081E-16
  1.7513E-16
  2.1946E-16
  6.5405E-17
  1.1947E-16
  1.7353E-16
  0.0000E+00
  6.3803E-17
  1.2761E-16
  5.2036E-16
  7.0359E-16
  8.8683E-16
  2.6018E-16
  4.8112E-16
  7.0205E-16
  0.0000E+00
  2.5864E-16
  5.1728E-16
  1.9504E-15
  2.6416E-15
  3.3328E-15
  9.7520E-16
  1.8075E-15
  2.6399E-15
  0.0000E+00
  9.7351E-16
  1.9470E-15
  7.2816E-15
  9.8596E-15
  1.2438E-14
  3.6408E-15
  6.7500E-15
  9.8592E-15
  0.0000E+00
  3.6405E-15
  7.2810E-15
  2.7179E-14
  3.6793E-14
  4.6407E-14
  1.3589E-14
  2.5192E-14
  3.6795E-14
  0.0000E+00
  1.3591E-14
  2.7183E-14
  1.6450E-13
  1.9316E-13
  2.2182E-13
  8.2248E-14
  1.3770E-13
  1.9316E-13
  0.0000E+00
  8.2252E-14
  1.6450E-13
  4.3923E-09
  4.3923E-09
  4.3923E-09
  4.3923E-09
  4.3923E-09
  4.3923E-09
  4.3922E-09
  4.3923E-09
  4.3923E-09
  1.7569E-08
  1.7568E-08
  1.7568E-08
  1.7569E-08
  1.7569E-08
  1.7568E-08
  1.7569E-08
  1.7569E-08
  1.7569E-08
  6.5882E-08
  6.5882E-08
  6.5881E-08
  6.5883E-08
  6.5882E-08
  6.5882E-08
  6.5884E-08
  6.5883E-08
  6.5882E-08
  2.5475E-07
  2.5474E-07
  2.5474E-07
  2.5475E-07
  2.5475E-07
  2.5474E-07
  2.5475E-07
  2.5475E-07
  2.5475E-07
  9.3993E-07
  9.3992E-07
  9.3991E-07
  9.3993E-07
  9.3993E-07
  9.3992E-07
  9.3994E-07
  9.3993E-07
  9.3993E-07
  3.4786E-06
  3.4786E-06
  3.4786E-06
  3.4786E-06
  3.4786E-06
  3.4786E-06
  3.4787E-06
  3.4786E-06
  3.4786E-06
  1.2974E-05
  1.2974E-05
  1.2974E-05
  1.2974E-05
  1.2974E-05
  1.2974E-05
  1.2974E-05
  1.2974E-05
  1.2974E-05
  4.8440E-05
  4.8440E-05
  4.8440E-05
  4.8440E-05
  4.8440E-05
  4.8440E-05
  4.8440E-05
  4.8440E-05
  4.8440E-05
  1.8081E-04
  1.8081E-04
  1.8081E-04
  1.8081E-04
  1.8081E-04
  1.8081E-04
  1.8081E-04
  1.8081E-04
  1.8081E-04
  6.7484E-04
  6.7484E-04
  6.7484E-04
  6.7484E-04
  6.7484E-04
  6.7484E-04
  6.7484E-04
  6.7484E-04
  6.7484E-04
  2.5186E-03
  2.5186E-03
  2.5186E-03
  2.5186E-03
  2.5186E-03
  2.5186E-03
  2.5186E-03
  2.5186E-03
  2.5186E-03
  9.4001E-03
  9.4001E-03
  9.4001E-03
  9.4001E-03
  9.4001E-03
  9.4001E-03
  9.4001E-03
  9.4001E-03
  9.4001E-03
  3.5082E-02
  3.5082E-02
  3.5082E-02
  3.5082E-02
  3.5082E-02
  3.5082E-02
  3.5082E-02
  3.5082E-02
  3.5082E-02
  5.5338E-02
  5.5338E-02
  5.5338E-02
  5.5338E-02
  5.5338E-02
  5.5338E-02
  5.5338E-02
  5.5338E-02
  5.5338E-02
   5.7000E-03
  4.8481E-17
  6.3046E-17
  7.7611E-17
  2.4240E-17
  4.2395E-17
  6.0549E-17
  0.0000E+00
  2.1744E-17
  4.3487E-17
  1.4037E-16
  1.8800E-16
  2.3563E-16
  7.0187E-17
  1.2826E-16
  1.8634E-16
  0.0000E+00
  6.8521E-17
  1.3704E-16
  5.5851E-16
  7.5521E-16
  9.5191E-16
  2.7926E-16
  5.1643E-16
  7.5361E-16
  0.0000E+00
  2.7766E-16
  5.5532E-16
  2.0935E-15
  2.8353E-15
  3.5771E-15
  1.0467E-15
  1.9401E-15
  2.8335E-15
  0.0000E+00
  1.0450E-15
  2.0899E-15
  7.8156E-15
  1.0583E-14
  1.3349E-14
  3.9078E-15
  7.2450E-15
  1.0582E-14
  0.0000E+00
  3.9075E-15
  7.8150E-15
  2.9172E-14
  3.9491E-14
  4.9810E-14
  1.4586E-14
  2.7039E-14
  3.9493E-14
  0.0000E+00
  1.4588E-14
  2.9176E-14
  1.7102E-13
  2.0210E-13
  2.3319E-13
  8.5509E-14
  1.4381E-13
  2.0211E-13
  0.0000E+00
  8.5513E-14
  1.7103E-13
  4.5506E-09
  4.5506E-09
  4.5505E-09
  4.5505E-09
  4.5505E-09
  4.5506E-09
  4.5505E-09
  4.5505E-09
  4.5506E-09
  1.8202E-08
  1.8201E-08
  1.8201E-08
  1.8202E-08
  1.8202E-08
  1.8201E-08
  1.8202E-08
  1.8202E-08
  1.8202E-08
  6.8256E-08
  6.8256E-08
  6.8255E-08
  6.8257E-08
  6.8256E-08
  6.8256E-08
  6.8258E-08
  6.8257E-08
  6.8256E-08
  2.6393E-07
  2.6392E-07
  2.6392E-07
  2.6393E-07
  2.6393E-07
  2.6392E-07
  2.6393E-07
  2.6393E-07
  2.6393E-07
  9.7380E-07
  9.7379E-07
  9.7378E-07
  9.7380E-07
  9.7380E-07
  9.7379E-07
  9.7381E-07
  9.7380E-07
  9.7380E-07
  3.6040E-06
  3.6039E-06
  3.6039E-06
  3.6040E-06
  3.6040E-06
  3.6039E-06
  3.6040E-06
  3.6040E-06
  3.6040E-06
  1.3442E-05
  1.3442E-05
  1.3442E-05
  1.3442E-05
  1.3442E-05
  1.3442E-05
  1.3442E-05
  1.3442E-05
  1.3442E-05
  5.0185E-05
  5.0185E-05
  5.0185E-05
  5.0185E-05
  5.0185E-05
  5.0185E-05
  5.0185E-05
  5.0185E-05
  5.0185E-05
  1.8733E-04
  1.8733E-04
  1.8733E-04
  1.8733E-04
  1.8733E-04
  1.8733E-04
  1.8733E-04
  1.8733E-04
  1.8733E-04
  6.9915E-04
  6.9915E-04
  6.9915E-04
  6.9915E-04
  6.9915E-04
  6.9915E-04
  6.9915E-04
  6.9915E-04
  6.9915E-04
  2.6094E-03
  2.6094E-03
  2.6094E-03
  2.6094E-03
  2.6094E-03
  2.6094E-03
  2.6094E-03
  2.6094E-03
  2.6094E-03
  9.7388E-03
  9.7388E-03
  9.7388E-03
  9.7388E-03
  9.7388E-03
  9.7388E-03
  9.7388E-03
  9.7388E-03
  9.7388E-03
  3.6347E-02
  3.6347E-02
  3.6347E-02
  3.6347E-02
  3.6347E-02
  3.6347E-02
  3.6347E-02
  3.6347E-02
  3.6347E-02
  5.7332E-02
  5.7332E-02
  5.7332E-02
  5.7332E-02
  5.7332E-02
  5.7332E-02
  5.7332E-02
  5.7332E-02
  5.7332E-02
   5.8000E-03
  5.1900E-17
  6.7575E-17
  8.3250E-17
  2.5950E-17
  4.5465E-17
  6.4981E-17
  0.0000E+00
  2.3356E-17
  4.6712E-17
  1.5045E-16
  2.0157E-16
  2.5269E-16
  7.5227E-17
  1.3753E-16
  1.9984E-16
  0.0000E+00
  7.3496E-17
  1.4699E-16
  5.9873E-16
  8.0962E-16
  1.0205E-15
  2.9937E-16
  5.5366E-16
  8.0796E-16
  0.0000E+00
  2.9771E-16
  5.9542E-16
  2.2442E-15
  3.0394E-15
  3.8346E-15
  1.1221E-15
  2.0799E-15
  3.0376E-15
  0.0000E+00
  1.1203E-15
  2.2406E-15
  8.3786E-15
  1.1345E-14
  1.4311E-14
  4.1893E-15
  7.7668E-15
  1.1344E-14
  0.0000E+00
  4.1889E-15
  8.3779E-15
  6.5945E-14
  7.4171E-14
  8.2397E-14
  3.2972E-14
  5.3572E-14
  7.4172E-14
  0.0000E+00
  3.2974E-14
  6.5948E-14
  2.3946E-13
  2.6571E-13
  2.9196E-13
  1.1973E-13
  1.9273E-13
  2.6572E-13
  0.0000E+00
  1.1974E-13
  2.3947E-13
  4.7117E-09
  4.7117E-09
  4.7116E-09
  4.7116E-09
  4.7116E-09
  4.7117E-09
  4.7116E-09
  4.7116E-09
  4.7117E-09
  1.8846E-08
  1.8846E-08
  1.8845E-08
  1.8846E-08
  1.8846E-08
  1.8846E-08
  1.8846E-08
  1.8846E-08
  1.8846E-08
  7.0672E-08
  7.0672E-08
  7.0671E-08
  7.0673E-08
  7.0672E-08
  7.0672E-08
  7.0674E-08
  7.0673E-08
  7.0672E-08
  2.7327E-07
  2.7326E-07
  2.7326E-07
  2.7327E-07
  2.7327E-07
  2.7326E-07
  2.7327E-07
  2.7327E-07
  2.7327E-07
  1.0083E-06
  1.0083E-06
  1.0082E-06
  1.0083E-06
  1.0083E-06
  1.0083E-06
  1.0083E-06
  1.0083E-06
  1.0083E-06
  3.7315E-06
  3.7315E-06
  3.7315E-06
  3.7315E-06
  3.7315E-06
  3.7315E-06
  3.7316E-06
  3.7315E-06
  3.7315E-06
  1.3917E-05
  1.3917E-05
  1.3917E-05
  1.3917E-05
  1.3917E-05
  1.3917E-05
  1.3917E-05
  1.3917E-05
  1.3917E-05
  5.1961E-05
  5.1961E-05
  5.1961E-05
  5.1961E-05
  5.1961E-05
  5.1961E-05
  5.1961E-05
  5.1961E-05
  5.1961E-05
  1.9395E-04
  1.9395E-04
  1.9395E-04
  1.9395E-04
  1.9395E-04
  1.9395E-04
  1.9395E-04
  1.9395E-04
  1.9395E-04
  7.2389E-04
  7.2389E-04
  7.2389E-04
  7.2389E-04
  7.2389E-04
  7.2389E-04
  7.2389E-04
  7.2389E-04
  7.2389E-04
  2.7017E-03
  2.7017E-03
  2.7017E-03
  2.7017E-03
  2.7017E-03
  2.7017E-03
  2.7017E-03
  2.7017E-03
  2.7017E-03
  1.0083E-02
  1.0083E-02
  1.0083E-02
  1.0083E-02
  1.0083E-02
  1.0083E-02
  1.0083E-02
  1.0083E-02
  1.0083E-02
  3.7633E-02
  3.7633E-02
  3.7633E-02
  3.7633E-02
  3.7633E-02
  3.7633E-02
  3.7633E-02
  3.7633E-02
  3.7633E-02
  5.9361E-02
  5.9361E-02
  5.9361E-02
  5.9361E-02
  5.9361E-02
  5.9361E-02
  5.9361E-02
  5.9361E-02
  5.9361E-02
   5.9000E-03
  5.5498E-17
  7.2345E-17
  8.9191E-17
  2.7749E-17
  4.8700E-17
  6.9652E-17
  0.0000E+00
  2.5056E-17
  5.0112E-17
  1.6107E-16
  2.1586E-16
  2.7066E-16
  8.0534E-17
  1.4730E-16
  2.1407E-16
  0.0000E+00
  7.8738E-17
  1.5748E-16
  6.4108E-16
  8.6691E-16
  1.0927E-15
  3.2054E-16
  5.9287E-16
  8.6520E-16
  0.0000E+00
  3.1883E-16
  6.3765E-16
  2.4030E-15
  3.2544E-15
  4.1058E-15
  1.2015E-15
  2.2270E-15
  3.2525E-15
  0.0000E+00
  1.1996E-15
  2.3993E-15
  8.9713E-15
  1.2147E-14
  1.5323E-14
  4.4857E-15
  8.3162E-15
  1.2147E-14
  0.0000E+00
  4.4853E-15
  8.9706E-15
  6.7724E-14
  7.6621E-14
  8.5517E-14
  3.3862E-14
  5.5242E-14
  7.6622E-14
  0.0000E+00
  3.3864E-14
  6.7728E-14
  2.4613E-13
  2.7495E-13
  3.0376E-13
  1.2307E-13
  1.9901E-13
  2.7495E-13
  0.0000E+00
  1.2307E-13
  2.4614E-13
  4.8755E-09
  4.8755E-09
  4.8755E-09
  4.8755E-09
  4.8755E-09
  4.8755E-09
  4.8755E-09
  4.8755E-09
  4.8755E-09
  1.9501E-08
  1.9501E-08
  1.9501E-08
  1.9502E-08
  1.9501E-08
  1.9501E-08
  1.9502E-08
  1.9502E-08
  1.9501E-08
  7.3130E-08
  7.3129E-08
  7.3129E-08
  7.3131E-08
  7.3130E-08
  7.3129E-08
  7.3132E-08
  7.3131E-08
  7.3130E-08
  2.8277E-07
  2.8277E-07
  2.8277E-07
  2.8277E-07
  2.8277E-07
  2.8277E-07
  2.8278E-07
  2.8277E-07
  2.8277E-07
  1.0433E-06
  1.0433E-06
  1.0433E-06
  1.0433E-06
  1.0433E-06
  1.0433E-06
  1.0433E-06
  1.0433E-06
  1.0433E-06
  3.8613E-06
  3.8613E-06
  3.8612E-06
  3.8613E-06
  3.8613E-06
  3.8613E-06
  3.8613E-06
  3.8613E-06
  3.8613E-06
  1.4401E-05
  1.4401E-05
  1.4401E-05
  1.4401E-05
  1.4401E-05
  1.4401E-05
  1.4401E-05
  1.4401E-05
  1.4401E-05
  5.3768E-05
  5.3768E-05
  5.3768E-05
  5.3768E-05
  5.3768E-05
  5.3768E-05
  5.3768E-05
  5.3768E-05
  5.3768E-05
  2.0070E-04
  2.0070E-04
  2.0070E-04
  2.0070E-04
  2.0070E-04
  2.0070E-04
  2.0070E-04
  2.0070E-04
  2.0070E-04
  7.4906E-04
  7.4906E-04
  7.4906E-04
  7.4906E-04
  7.4906E-04
  7.4906E-04
  7.4906E-04
  7.4906E-04
  7.4906E-04
  2.7957E-03
  2.7957E-03
  2.7957E-03
  2.7957E-03
  2.7957E-03
  2.7957E-03
  2.7957E-03
  2.7957E-03
  2.7957E-03
  1.0434E-02
  1.0434E-02
  1.0434E-02
  1.0434E-02
  1.0434E-02
  1.0434E-02
  1.0434E-02
  1.0434E-02
  1.0434E-02
  3.8942E-02
  3.8942E-02
  3.8942E-02
  3.8942E-02
  3.8942E-02
  3.8942E-02
  3.8942E-02
  3.8942E-02
  3.8942E-02
  6.1425E-02
  6.1425E-02
  6.1425E-02
  6.1425E-02
  6.1425E-02
  6.1425E-02
  6.1425E-02
  6.1425E-02
  6.1425E-02
   6.0000E-03
  5.9281E-17
  7.7363E-17
  9.5445E-17
  2.9640E-17
  5.2105E-17
  7.4569E-17
  0.0000E+00
  2.6847E-17
  5.3693E-17
  1.7224E-16
  2.3090E-16
  2.8956E-16
  8.6118E-17
  1.5758E-16
  2.2904E-16
  0.0000E+00
  8.4254E-17
  1.6851E-16
  6.8564E-16
  9.2719E-16
  1.1687E-15
  3.4282E-16
  6.3412E-16
  9.2542E-16
  0.0000E+00
  3.4104E-16
  6.8209E-16
  2.5701E-15
  3.4806E-15
  4.3911E-15
  1.2850E-15
  2.3818E-15
  3.4786E-15
  0.0000E+00
  1.2831E-15
  2.5662E-15
  9.5950E-15
  1.2991E-14
  1.6388E-14
  4.7975E-15
  8.8943E-15
  1.2991E-14
  0.0000E+00
  4.7971E-15
  9.5943E-15
  6.9620E-14
  7.9230E-14
  8.8840E-14
  3.4810E-14
  5.7021E-14
  7.9232E-14
  0.0000E+00
  3.4812E-14
  6.9624E-14
  2.5328E-13
  2.8483E-13
  3.1638E-13
  1.2664E-13
  2.0574E-13
  2.8484E-13
  0.0000E+00
  1.2665E-13
  2.5329E-13
  5.0422E-09
  5.0422E-09
  5.0421E-09
  5.0422E-09
  5.0422E-09
  5.0422E-09
  5.0421E-09
  5.0422E-09
  5.0422E-09
  2.0168E-08
  2.0168E-08
  2.0168E-08
  2.0168E-08
  2.0168E-08
  2.0168E-08
  2.0168E-08
  2.0168E-08
  2.0168E-08
  7.5630E-08
  7.5629E-08
  7.5628E-08
  7.5631E-08
  7.5630E-08
  7.5629E-08
  7.5632E-08
  7.5631E-08
  7.5630E-08
  2.9244E-07
  2.9243E-07
  2.9243E-07
  2.9244E-07
  2.9244E-07
  2.9243E-07
  2.9244E-07
  2.9244E-07
  2.9244E-07
  1.0790E-06
  1.0790E-06
  1.0790E-06
  1.0790E-06
  1.0790E-06
  1.0790E-06
  1.0790E-06
  1.0790E-06
  1.0790E-06
  3.9933E-06
  3.9933E-06
  3.9932E-06
  3.9933E-06
  3.9933E-06
  3.9933E-06
  3.9933E-06
  3.9933E-06
  3.9933E-06
  1.4893E-05
  1.4893E-05
  1.4893E-05
  1.4893E-05
  1.4893E-05
  1.4893E-05
  1.4893E-05
  1.4893E-05
  1.4893E-05
  5.5606E-05
  5.5606E-05
  5.5606E-05
  5.5606E-05
  5.5606E-05
  5.5606E-05
  5.5606E-05
  5.5606E-05
  5.5606E-05
  2.0756E-04
  2.0756E-04
  2.0756E-04
  2.0756E-04
  2.0756E-04
  2.0756E-04
  2.0756E-04
  2.0756E-04
  2.0756E-04
  7.7467E-04
  7.7467E-04
  7.7467E-04
  7.7467E-04
  7.7467E-04
  7.7467E-04
  7.7467E-04
  7.7467E-04
  7.7467E-04
  2.8912E-03
  2.8912E-03
  2.8912E-03
  2.8912E-03
  2.8912E-03
  2.8912E-03
  2.8912E-03
  2.8912E-03
  2.8912E-03
  1.0791E-02
  1.0791E-02
  1.0791E-02
  1.0791E-02
  1.0791E-02
  1.0791E-02
  1.0791E-02
  1.0791E-02
  1.0791E-02
  4.0273E-02
  4.0273E-02
  4.0273E-02
  4.0273E-02
  4.0273E-02
  4.0273E-02
  4.0273E-02
  4.0273E-02
  4.0273E-02
  6.3525E-02
  6.3525E-02
  6.3525E-02
  6.3525E-02
  6.3525E-02
  6.3525E-02
  6.3525E-02
  6.3525E-02
  6.3525E-02
   6.1000E-03
  6.3256E-17
  8.2639E-17
  1.0202E-16
  3.1628E-17
  5.5685E-17
  7.9743E-17
  0.0000E+00
  2.8732E-17
  5.7463E-17
  1.8397E-16
  2.4671E-16
  3.0944E-16
  9.1986E-17
  1.6838E-16
  2.4478E-16
  0.0000E+00
  9.0055E-17
  1.8011E-16
  7.3248E-16
  9.9057E-16
  1.2487E-15
  3.6624E-16
  6.7749E-16
  9.8873E-16
  0.0000E+00
  3.6441E-16
  7.2881E-16
  2.7457E-15
  3.7184E-15
  4.6910E-15
  1.3728E-15
  2.5446E-15
  3.7163E-15
  0.0000E+00
  1.3708E-15
  2.7417E-15
  1.0251E-14
  1.3879E-14
  1.7507E-14
  5.1253E-15
  9.5020E-15
  1.3879E-14
  0.0000E+00
  5.1250E-15
  1.0250E-14
  7.1638E-14
  8.2006E-14
  9.2375E-14
  3.5819E-14
  5.8914E-14
  8.2008E-14
  0.0000E+00
  3.5821E-14
  7.1642E-14
  2.6094E-13
  2.9539E-13
  3.2985E-13
  1.3047E-13
  2.1293E-13
  2.9539E-13
  0.0000E+00
  1.3047E-13
  2.6094E-13
  5.2117E-09
  5.2116E-09
  5.2116E-09
  5.2116E-09
  5.2116E-09
  5.2116E-09
  5.2116E-09
  5.2116E-09
  5.2117E-09
  2.0846E-08
  2.0846E-08
  2.0845E-08
  2.0846E-08
  2.0846E-08
  2.0846E-08
  2.0846E-08
  2.0846E-08
  2.0846E-08
  7.8172E-08
  7.8171E-08
  7.8170E-08
  7.8173E-08
  7.8172E-08
  7.8171E-08
  7.8174E-08
  7.8173E-08
  7.8172E-08
  3.0227E-07
  3.0226E-07
  3.0226E-07
  3.0227E-07
  3.0227E-07
  3.0226E-07
  3.0227E-07
  3.0227E-07
  3.0227E-07
  1.1153E-06
  1.1153E-06
  1.1152E-06
  1.1153E-06
  1.1153E-06
  1.1153E-06
  1.1153E-06
  1.1153E-06
  1.1153E-06
  4.1275E-06
  4.1275E-06
  4.1275E-06
  4.1275E-06
  4.1275E-06
  4.1275E-06
  4.1276E-06
  4.1275E-06
  4.1275E-06
  1.5394E-05
  1.5394E-05
  1.5394E-05
  1.5394E-05
  1.5394E-05
  1.5394E-05
  1.5394E-05
  1.5394E-05
  1.5394E-05
  5.7474E-05
  5.7474E-05
  5.7474E-05
  5.7474E-05
  5.7474E-05
  5.7474E-05
  5.7474E-05
  5.7474E-05
  5.7474E-05
  2.1453E-04
  2.1453E-04
  2.1453E-04
  2.1453E-04
  2.1453E-04
  2.1453E-04
  2.1453E-04
  2.1453E-04
  2.1453E-04
  8.0070E-04
  8.0070E-04
  8.0070E-04
  8.0070E-04
  8.0070E-04
  8.0070E-04
  8.0070E-04
  8.0070E-04
  8.0070E-04
  2.9884E-03
  2.9884E-03
  2.9884E-03
  2.9884E-03
  2.9884E-03
  2.9884E-03
  2.9884E-03
  2.9884E-03
  2.9884E-03
  1.1153E-02
  1.1153E-02
  1.1153E-02
  1.1153E-02
  1.1153E-02
  1.1153E-02
  1.1153E-02
  1.1153E-02
  1.1153E-02
  4.1627E-02
  4.1627E-02
  4.1627E-02
  4.1627E-02
  4.1627E-02
  4.1627E-02
  4.1627E-02
  4.1627E-02
  4.1627E-02
  6.5660E-02
  6.5660E-02
  6.5660E-02
  6.5660E-02
  6.5660E-02
  6.5660E-02
  6.5660E-02
  6.5660E-02
  6.5660E-02
   6.2000E-03
  6.7428E-17
  8.8181E-17
  1.0893E-16
  3.3714E-17
  5.9448E-17
  8.5181E-17
  0.0000E+00
  3.0714E-17
  6.1428E-17
  1.9630E-16
  2.6331E-16
  3.3033E-16
  9.8151E-17
  1.7973E-16
  2.6131E-16
  0.0000E+00
  9.6150E-17
  1.9230E-16
  7.8169E-16
  1.0571E-15
  1.3326E-15
  3.9084E-16
  7.2304E-16
  1.0552E-15
  0.0000E+00
  3.8894E-16
  7.7789E-16
  2.9302E-15
  3.9681E-15
  5.0061E-15
  1.4651E-15
  2.7156E-15
  3.9660E-15
  0.0000E+00
  1.4630E-15
  2.9260E-15
  1.0939E-14
  1.4811E-14
  1.8683E-14
  5.4697E-15
  1.0140E-14
  1.4811E-14
  0.0000E+00
  5.4693E-15
  1.0939E-14
  7.3783E-14
  8.4956E-14
  9.6130E-14
  3.6892E-14
  6.0925E-14
  8.4958E-14
  0.0000E+00
  3.6893E-14
  7.3787E-14
  2.6910E-13
  3.0664E-13
  3.4418E-13
  1.3455E-13
  2.2060E-13
  3.0665E-13
  0.0000E+00
  1.3455E-13
  2.6911E-13
  5.3839E-09
  5.3839E-09
  5.3839E-09
  5.3839E-09
  5.3839E-09
  5.3839E-09
  5.3839E-09
  5.3839E-09
  5.3839E-09
  2.1535E-08
  2.1535E-08
  2.1534E-08
  2.1535E-08
  2.1535E-08
  2.1535E-08
  2.1535E-08
  2.1535E-08
  2.1535E-08
  8.0756E-08
  8.0755E-08
  8.0754E-08
  8.0757E-08
  8.0756E-08
  8.0755E-08
  8.0758E-08
  8.0757E-08
  8.0756E-08
  3.1226E-07
  3.1225E-07
  3.1225E-07
  3.1226E-07
  3.1226E-07
  3.1225E-07
  3.1226E-07
  3.1226E-07
  3.1226E-07
  1.1521E-06
  1.1521E-06
  1.1521E-06
  1.1521E-06
  1.1521E-06
  1.1521E-06
  1.1521E-06
  1.1521E-06
  1.1521E-06
  4.2639E-06
  4.2639E-06
  4.2639E-06
  4.2640E-06
  4.2639E-06
  4.2639E-06
  4.2640E-06
  4.2640E-06
  4.2639E-06
  1.5903E-05
  1.5903E-05
  1.5903E-05
  1.5903E-05
  1.5903E-05
  1.5903E-05
  1.5903E-05
  1.5903E-05
  1.5903E-05
  5.9374E-05
  5.9374E-05
  5.9374E-05
  5.9374E-05
  5.9374E-05
  5.9374E-05
  5.9374E-05
  5.9374E-05
  5.9374E-05
  2.2162E-04
  2.2162E-04
  2.2162E-04
  2.2162E-04
  2.2162E-04
  2.2162E-04
  2.2162E-04
  2.2162E-04
  2.2162E-04
  8.2716E-04
  8.2716E-04
  8.2716E-04
  8.2716E-04
  8.2716E-04
  8.2716E-04
  8.2716E-04
  8.2716E-04
  8.2716E-04
  3.0872E-03
  3.0872E-03
  3.0872E-03
  3.0872E-03
  3.0872E-03
  3.0872E-03
  3.0872E-03
  3.0872E-03
  3.0872E-03
  1.1522E-02
  1.1522E-02
  1.1522E-02
  1.1522E-02
  1.1522E-02
  1.1522E-02
  1.1522E-02
  1.1522E-02
  1.1522E-02
  4.3002E-02
  4.3002E-02
  4.3002E-02
  4.3002E-02
  4.3002E-02
  4.3002E-02
  4.3002E-02
  4.3002E-02
  4.3002E-02
  6.7830E-02
  6.7830E-02
  6.7830E-02
  6.7830E-02
  6.7830E-02
  6.7830E-02
  6.7830E-02
  6.7830E-02
  6.7830E-02
   6.3000E-03
  7.1805E-17
  9.3999E-17
  1.1619E-16
  3.5903E-17
  6.3398E-17
  9.0893E-17
  0.0000E+00
  3.2797E-17
  6.5593E-17
  2.0924E-16
  2.8074E-16
  3.5225E-16
  1.0462E-16
  1.9165E-16
  2.7867E-16
  0.0000E+00
  1.0255E-16
  2.0510E-16
  8.3333E-16
  1.1270E-15
  1.4207E-15
  4.1666E-16
  7.7085E-16
  1.1250E-15
  0.0000E+00
  4.1470E-16
  8.2940E-16
  3.1238E-15
  4.2302E-15
  5.3367E-15
  1.5619E-15
  2.8950E-15
  4.2281E-15
  0.0000E+00
  1.5597E-15
  3.1195E-15
  1.1662E-14
  1.5790E-14
  1.9918E-14
  5.8311E-15
  1.0810E-14
  1.5790E-14
  0.0000E+00
  5.8307E-15
  1.1661E-14
  7.6061E-14
  8.8087E-14
  1.0011E-13
  3.8030E-14
  6.3060E-14
  8.8089E-14
  0.0000E+00
  3.8032E-14
  7.6065E-14
  2.7780E-13
  3.1861E-13
  3.5942E-13
  1.3890E-13
  2.2876E-13
  3.1861E-13
  0.0000E+00
  1.3890E-13
  2.7781E-13
  5.5590E-09
  5.5590E-09
  5.5589E-09
  5.5590E-09
  5.5590E-09
  5.5590E-09
  5.5589E-09
  5.5590E-09
  5.5590E-09
  2.2235E-08
  2.2235E-08
  2.2235E-08
  2.2235E-08
  2.2235E-08
  2.2235E-08
  2.2236E-08
  2.2235E-08
  2.2235E-08
  8.3382E-08
  8.3381E-08
  8.3380E-08
  8.3383E-08
  8.3382E-08
  8.3381E-08
  8.3384E-08
  8.3383E-08
  8.3382E-08
  3.2241E-07
  3.2241E-07
  3.2240E-07
  3.2242E-07
  3.2241E-07
  3.2241E-07
  3.2242E-07
  3.2242E-07
  3.2241E-07
  1.1896E-06
  1.1896E-06
  1.1896E-06
  1.1896E-06
  1.1896E-06
  1.1896E-06
  1.1896E-06
  1.1896E-06
  1.1896E-06
  4.4026E-06
  4.4026E-06
  4.4025E-06
  4.4026E-06
  4.4026E-06
  4.4026E-06
  4.4027E-06
  4.4026E-06
  4.4026E-06
  1.6420E-05
  1.6420E-05
  1.6420E-05
  1.6420E-05
  1.6420E-05
  1.6420E-05
  1.6420E-05
  1.6420E-05
  1.6420E-05
  6.1304E-05
  6.1304E-05
  6.1304E-05
  6.1304E-05
  6.1304E-05
  6.1304E-05
  6.1304E-05
  6.1304E-05
  6.1304E-05
  2.2883E-04
  2.2883E-04
  2.2883E-04
  2.2883E-04
  2.2883E-04
  2.2883E-04
  2.2883E-04
  2.2883E-04
  2.2883E-04
  8.5405E-04
  8.5405E-04
  8.5405E-04
  8.5405E-04
  8.5405E-04
  8.5405E-04
  8.5405E-04
  8.5405E-04
  8.5405E-04
  3.1875E-03
  3.1875E-03
  3.1875E-03
  3.1875E-03
  3.1875E-03
  3.1875E-03
  3.1875E-03
  3.1875E-03
  3.1875E-03
  1.1897E-02
  1.1897E-02
  1.1897E-02
  1.1897E-02
  1.1897E-02
  1.1897E-02
  1.1897E-02
  1.1897E-02
  1.1897E-02
  4.4401E-02
  4.4401E-02
  4.4401E-02
  4.4401E-02
  4.4401E-02
  4.4401E-02
  4.4401E-02
  4.4401E-02
  4.4401E-02
  7.0036E-02
  7.0036E-02
  7.0036E-02
  7.0036E-02
  7.0036E-02
  7.0036E-02
  7.0036E-02
  7.0036E-02
  7.0036E-02
   6.4000E-03
  7.6393E-17
  1.0010E-16
  1.2381E-16
  3.8197E-17
  6.7541E-17
  9.6886E-17
  0.0000E+00
  3.4983E-17
  6.9967E-17
  2.2281E-16
  2.9903E-16
  3.7524E-16
  1.1140E-16
  2.0414E-16
  2.9688E-16
  0.0000E+00
  1.0926E-16
  2.1852E-16
  8.8749E-16
  1.2003E-15
  1.5131E-15
  4.4374E-16
  8.2100E-16
  1.1983E-15
  0.0000E+00
  4.4172E-16
  8.8343E-16
  3.3268E-15
  4.5052E-15
  5.6835E-15
  1.6634E-15
  3.0832E-15
  4.5029E-15
  0.0000E+00
  1.6612E-15
  3.3224E-15
  1.2420E-14
  1.6816E-14
  2.1212E-14
  6.2102E-15
  1.1513E-14
  1.6816E-14
  0.0000E+00
  6.2097E-15
  1.2419E-14
  7.8477E-14
  9.1406E-14
  1.0434E-13
  3.9238E-14
  6.5323E-14
  9.1408E-14
  0.0000E+00
  3.9240E-14
  7.8481E-14
  2.8704E-13
  3.3131E-13
  3.7558E-13
  1.4352E-13
  2.3742E-13
  3.3132E-13
  0.0000E+00
  1.4353E-13
  2.8705E-13
  5.7369E-09
  5.7368E-09
  5.7368E-09
  5.7368E-09
  5.7368E-09
  5.7368E-09
  5.7368E-09
  5.7368E-09
  5.7369E-09
  2.2947E-08
  2.2946E-08
  2.2946E-08
  2.2947E-08
  2.2947E-08
  2.2946E-08
  2.2947E-08
  2.2947E-08
  2.2947E-08
  8.6050E-08
  8.6049E-08
  8.6048E-08
  8.6051E-08
  8.6050E-08
  8.6049E-08
  8.6052E-08
  8.6051E-08
  8.6050E-08
  3.3273E-07
  3.3272E-07
  3.3272E-07
  3.3273E-07
  3.3273E-07
  3.3272E-07
  3.3274E-07
  3.3273E-07
  3.3273E-07
  1.2277E-06
  1.2276E-06
  1.2276E-06
  1.2277E-06
  1.2277E-06
  1.2276E-06
  1.2277E-06
  1.2277E-06
  1.2277E-06
  4.5435E-06
  4.5434E-06
  4.5434E-06
  4.5435E-06
  4.5435E-06
  4.5434E-06
  4.5435E-06
  4.5435E-06
  4.5435E-06
  1.6945E-05
  1.6945E-05
  1.6945E-05
  1.6945E-05
  1.6945E-05
  1.6945E-05
  1.6945E-05
  1.6945E-05
  1.6945E-05
  6.3265E-05
  6.3265E-05
  6.3265E-05
  6.3265E-05
  6.3265E-05
  6.3265E-05
  6.3265E-05
  6.3265E-05
  6.3265E-05
  2.3615E-04
  2.3615E-04
  2.3615E-04
  2.3615E-04
  2.3615E-04
  2.3615E-04
  2.3615E-04
  2.3615E-04
  2.3615E-04
  8.8137E-04
  8.8137E-04
  8.8137E-04
  8.8137E-04
  8.8137E-04
  8.8137E-04
  8.8137E-04
  8.8137E-04
  8.8137E-04
  3.2895E-03
  3.2895E-03
  3.2895E-03
  3.2895E-03
  3.2895E-03
  3.2895E-03
  3.2895E-03
  3.2895E-03
  3.2895E-03
  1.2277E-02
  1.2277E-02
  1.2277E-02
  1.2277E-02
  1.2277E-02
  1.2277E-02
  1.2277E-02
  1.2277E-02
  1.2277E-02
  4.5821E-02
  4.5821E-02
  4.5821E-02
  4.5821E-02
  4.5821E-02
  4.5821E-02
  4.5821E-02
  4.5821E-02
  4.5821E-02
  7.2277E-02
  7.2277E-02
  7.2277E-02
  7.2277E-02
  7.2277E-02
  7.2277E-02
  7.2277E-02
  7.2277E-02
  7.2277E-02
   6.5000E-03
  8.1199E-17
  1.0649E-16
  1.3179E-16
  4.0599E-17
  7.1885E-17
  1.0317E-16
  0.0000E+00
  3.7277E-17
  7.4554E-17
  2.3703E-16
  3.1819E-16
  3.9935E-16
  1.1851E-16
  2.1724E-16
  3.1597E-16
  0.0000E+00
  1.1630E-16
  2.3260E-16
  9.4424E-16
  1.2771E-15
  1.6099E-15
  4.7212E-16
  8.7355E-16
  1.2750E-15
  0.0000E+00
  4.7003E-16
  9.4006E-16
  3.5396E-15
  4.7933E-15
  6.0469E-15
  1.7698E-15
  3.2804E-15
  4.7910E-15
  0.0000E+00
  1.7675E-15
  3.5351E-15
  1.3215E-14
  1.7892E-14
  2.2569E-14
  6.6074E-15
  1.2249E-14
  1.7891E-14
  0.0000E+00
  6.6069E-15
  1.3214E-14
  8.1036E-14
  9.4920E-14
  1.0880E-13
  4.0518E-14
  6.7720E-14
  9.4922E-14
  0.0000E+00
  4.0520E-14
  8.1040E-14
  3.6957E-13
  4.1238E-13
  4.5519E-13
  1.8478E-13
  2.9858E-13
  4.1238E-13
  0.0000E+00
  1.8479E-13
  3.6958E-13
  5.9177E-09
  5.9176E-09
  5.9176E-09
  5.9176E-09
  5.9176E-09
  5.9176E-09
  5.9175E-09
  5.9176E-09
  5.9177E-09
  2.3669E-08
  2.3669E-08
  2.3669E-08
  2.3670E-08
  2.3669E-08
  2.3669E-08
  2.3670E-08
  2.3670E-08
  2.3669E-08
  8.8760E-08
  8.8759E-08
  8.8758E-08
  8.8761E-08
  8.8760E-08
  8.8759E-08
  8.8762E-08
  8.8761E-08
  8.8760E-08
  3.4321E-07
  3.4320E-07
  3.4320E-07
  3.4321E-07
  3.4321E-07
  3.4320E-07
  3.4321E-07
  3.4321E-07
  3.4321E-07
  1.2663E-06
  1.2663E-06
  1.2663E-06
  1.2663E-06
  1.2663E-06
  1.2663E-06
  1.2663E-06
  1.2663E-06
  1.2663E-06
  4.6865E-06
  4.6865E-06
  4.6865E-06
  4.6866E-06
  4.6865E-06
  4.6865E-06
  4.6866E-06
  4.6866E-06
  4.6865E-06
  1.7479E-05
  1.7479E-05
  1.7479E-05
  1.7479E-05
  1.7479E-05
  1.7479E-05
  1.7479E-05
  1.7479E-05
  1.7479E-05
  6.5257E-05
  6.5257E-05
  6.5257E-05
  6.5257E-05
  6.5257E-05
  6.5257E-05
  6.5257E-05
  6.5257E-05
  6.5257E-05
  2.4358E-04
  2.4358E-04
  2.4358E-04
  2.4358E-04
  2.4358E-04
  2.4358E-04
  2.4358E-04
  2.4358E-04
  2.4358E-04
  9.0913E-04
  9.0913E-04
  9.0913E-04
  9.0913E-04
  9.0913E-04
  9.0913E-04
  9.0913E-04
  9.0913E-04
  9.0913E-04
  3.3931E-03
  3.3931E-03
  3.3931E-03
  3.3931E-03
  3.3931E-03
  3.3931E-03
  3.3931E-03
  3.3931E-03
  3.3931E-03
  1.2664E-02
  1.2664E-02
  1.2664E-02
  1.2664E-02
  1.2664E-02
  1.2664E-02
  1.2664E-02
  1.2664E-02
  1.2664E-02
  4.7264E-02
  4.7264E-02
  4.7264E-02
  4.7264E-02
  4.7264E-02
  4.7264E-02
  4.7264E-02
  4.7264E-02
  4.7264E-02
  7.4553E-02
  7.4553E-02
  7.4553E-02
  7.4553E-02
  7.4553E-02
  7.4553E-02
  7.4553E-02
  7.4553E-02
  7.4553E-02
   6.6000E-03
  8.6229E-17
  1.1319E-16
  1.4015E-16
  4.3114E-17
  7.6436E-17
  1.0976E-16
  0.0000E+00
  3.9682E-17
  7.9363E-17
  2.5191E-16
  3.3825E-16
  4.2459E-16
  1.2596E-16
  2.3096E-16
  3.3597E-16
  0.0000E+00
  1.2367E-16
  2.4734E-16
  1.0037E-15
  1.3575E-15
  1.7113E-15
  5.0184E-16
  9.2859E-16
  1.3553E-15
  0.0000E+00
  4.9968E-16
  9.9937E-16
  3.7625E-15
  5.0950E-15
  6.4274E-15
  1.8812E-15
  3.4869E-15
  5.0926E-15
  0.0000E+00
  1.8789E-15
  3.7578E-15
  1.4047E-14
  1.9018E-14
  2.3989E-14
  7.0234E-15
  1.3020E-14
  1.9017E-14
  0.0000E+00
  7.0229E-15
  1.4046E-14
  8.3744E-14
  9.8636E-14
  1.1353E-13
  4.1872E-14
  7.0255E-14
  9.8638E-14
  0.0000E+00
  4.1874E-14
  8.3748E-14
  3.7898E-13
  4.2539E-13
  4.7180E-13
  1.8949E-13
  3.0744E-13
  4.2539E-13
  0.0000E+00
  1.8949E-13
  3.7899E-13
  6.1011E-09
  6.1011E-09
  6.1010E-09
  6.1010E-09
  6.1011E-09
  6.1011E-09
  6.1010E-09
  6.1010E-09
  6.1011E-09
  2.4403E-08
  2.4403E-08
  2.4402E-08
  2.4404E-08
  2.4403E-08
  2.4403E-08
  2.4404E-08
  2.4404E-08
  2.4403E-08
  9.1512E-08
  9.1511E-08
  9.1510E-08
  9.1513E-08
  9.1512E-08
  9.1511E-08
  9.1514E-08
  9.1513E-08
  9.1512E-08
  3.5385E-07
  3.5384E-07
  3.5384E-07
  3.5385E-07
  3.5385E-07
  3.5384E-07
  3.5386E-07
  3.5385E-07
  3.5385E-07
  1.3056E-06
  1.3056E-06
  1.3056E-06
  1.3056E-06
  1.3056E-06
  1.3056E-06
  1.3056E-06
  1.3056E-06
  1.3056E-06
  4.8319E-06
  4.8318E-06
  4.8318E-06
  4.8319E-06
  4.8319E-06
  4.8318E-06
  4.8319E-06
  4.8319E-06
  4.8319E-06
  1.8020E-05
  1.8020E-05
  1.8020E-05
  1.8020E-05
  1.8020E-05
  1.8020E-05
  1.8020E-05
  1.8020E-05
  1.8020E-05
  6.7280E-05
  6.7280E-05
  6.7280E-05
  6.7280E-05
  6.7280E-05
  6.7280E-05
  6.7279E-05
  6.7280E-05
  6.7280E-05
  2.5113E-04
  2.5113E-04
  2.5113E-04
  2.5113E-04
  2.5113E-04
  2.5113E-04
  2.5113E-04
  2.5113E-04
  2.5113E-04
  9.3731E-04
  9.3731E-04
  9.3731E-04
  9.3731E-04
  9.3731E-04
  9.3731E-04
  9.3731E-04
  9.3731E-04
  9.3731E-04
  3.4983E-03
  3.4983E-03
  3.4983E-03
  3.4983E-03
  3.4983E-03
  3.4983E-03
  3.4983E-03
  3.4983E-03
  3.4983E-03
  1.3057E-02
  1.3057E-02
  1.3057E-02
  1.3057E-02
  1.3057E-02
  1.3057E-02
  1.3057E-02
  1.3057E-02
  1.3057E-02
  4.8730E-02
  4.8730E-02
  4.8730E-02
  4.8730E-02
  4.8730E-02
  4.8730E-02
  4.8730E-02
  4.8730E-02
  4.8730E-02
  7.6864E-02
  7.6864E-02
  7.6864E-02
  7.6864E-02
  7.6864E-02
  7.6864E-02
  7.6864E-02
  7.6864E-02
  7.6864E-02
   6.7000E-03
  9.1490E-17
  1.2020E-16
  1.4890E-16
  4.5745E-17
  8.1199E-17
  1.1665E-16
  0.0000E+00
  4.2200E-17
  8.4400E-17
  2.6749E-16
  3.5925E-16
  4.5101E-16
  1.3375E-16
  2.4532E-16
  3.5689E-16
  0.0000E+00
  1.3138E-16
  2.6277E-16
  1.0659E-15
  1.4416E-15
  1.8174E-15
  5.3294E-16
  9.8618E-16
  1.4394E-15
  0.0000E+00
  5.3072E-16
  1.0614E-15
  3.9957E-15
  5.4107E-15
  6.8257E-15
  1.9979E-15
  3.7031E-15
  5.4083E-15
  0.0000E+00
  1.9954E-15
  3.9908E-15
  1.4917E-14
  2.0197E-14
  2.5476E-14
  7.4587E-15
  1.3827E-14
  2.0196E-14
  0.0000E+00
  7.4582E-15
  1.4916E-14
  8.6606E-14
  1.0256E-13
  1.1852E-13
  4.3303E-14
  7.2933E-14
  1.0256E-13
  0.0000E+00
  4.3305E-14
  8.6611E-14
  3.8898E-13
  4.3921E-13
  4.8943E-13
  1.9449E-13
  3.1685E-13
  4.3921E-13
  0.0000E+00
  1.9450E-13
  3.8899E-13
  6.2874E-09
  6.2874E-09
  6.2873E-09
  6.2873E-09
  6.2873E-09
  6.2874E-09
  6.2872E-09
  6.2873E-09
  6.2874E-09
  2.5148E-08
  2.5148E-08
  2.5147E-08
  2.5149E-08
  2.5148E-08
  2.5148E-08
  2.5149E-08
  2.5149E-08
  2.5148E-08
  9.4306E-08
  9.4305E-08
  9.4303E-08
  9.4307E-08
  9.4306E-08
  9.4305E-08
  9.4309E-08
  9.4307E-08
  9.4306E-08
  3.6465E-07
  3.6465E-07
  3.6464E-07
  3.6466E-07
  3.6465E-07
  3.6465E-07
  3.6466E-07
  3.6466E-07
  3.6465E-07
  1.3454E-06
  1.3454E-06
  1.3454E-06
  1.3455E-06
  1.3454E-06
  1.3454E-06
  1.3455E-06
  1.3455E-06
  1.3454E-06
  4.9794E-06
  4.9793E-06
  4.9793E-06
  4.9794E-06
  4.9794E-06
  4.9793E-06
  4.9794E-06
  4.9794E-06
  4.9794E-06
  1.8571E-05
  1.8571E-05
  1.8571E-05
  1.8571E-05
  1.8571E-05
  1.8571E-05
  1.8571E-05
  1.8571E-05
  1.8571E-05
  6.9333E-05
  6.9333E-05
  6.9333E-05
  6.9333E-05
  6.9333E-05
  6.9333E-05
  6.9333E-05
  6.9333E-05
  6.9333E-05
  2.5880E-04
  2.5880E-04
  2.5880E-04
  2.5880E-04
  2.5880E-04
  2.5880E-04
  2.5880E-04
  2.5880E-04
  2.5880E-04
  9.6592E-04
  9.6592E-04
  9.6592E-04
  9.6592E-04
  9.6592E-04
  9.6592E-04
  9.6592E-04
  9.6592E-04
  9.6592E-04
  3.6051E-03
  3.6051E-03
  3.6051E-03
  3.6051E-03
  3.6051E-03
  3.6051E-03
  3.6051E-03
  3.6051E-03
  3.6051E-03
  1.3455E-02
  1.3455E-02
  1.3455E-02
  1.3455E-02
  1.3455E-02
  1.3455E-02
  1.3455E-02
  1.3455E-02
  1.3455E-02
  5.0217E-02
  5.0217E-02
  5.0217E-02
  5.0217E-02
  5.0217E-02
  5.0217E-02
  5.0217E-02
  5.0217E-02
  5.0217E-02
  7.9211E-02
  7.9211E-02
  7.9211E-02
  7.9211E-02
  7.9211E-02
  7.9211E-02
  7.9211E-02
  7.9211E-02
  7.9211E-02
   6.8000E-03
  9.6990E-17
  1.2753E-16
  1.5806E-16
  4.8495E-17
  8.6181E-17
  1.2387E-16
  0.0000E+00
  4.4836E-17
  8.9672E-17
  2.8379E-16
  3.8122E-16
  4.7865E-16
  1.4189E-16
  2.6034E-16
  3.7878E-16
  0.0000E+00
  1.3946E-16
  2.7891E-16
  1.1309E-15
  1.5297E-15
  1.9284E-15
  5.6546E-16
  1.0464E-15
  1.5274E-15
  0.0000E+00
  5.6317E-16
  1.1263E-15
  4.2396E-15
  5.7409E-15
  7.2422E-15
  2.1198E-15
  3.9291E-15
  5.7384E-15
  0.0000E+00
  2.1173E-15
  4.2346E-15
  1.5828E-14
  2.1429E-14
  2.7030E-14
  7.9140E-15
  1.4671E-14
  2.1429E-14
  0.0000E+00
  7.9135E-15
  1.5827E-14
  8.9627E-14
  1.0670E-13
  1.2378E-13
  4.4814E-14
  7.5759E-14
  1.0670E-13
  0.0000E+00
  4.4816E-14
  8.9632E-14
  3.9960E-13
  4.5385E-13
  5.0811E-13
  1.9980E-13
  3.2683E-13
  4.5386E-13
  0.0000E+00
  1.9980E-13
  3.9961E-13
  6.4765E-09
  6.4764E-09
  6.4764E-09
  6.4764E-09
  6.4764E-09
  6.4764E-09
  6.4763E-09
  6.4764E-09
  6.4765E-09
  2.5904E-08
  2.5904E-08
  2.5904E-08
  2.5905E-08
  2.5904E-08
  2.5904E-08
  2.5905E-08
  2.5905E-08
  2.5904E-08
  9.7142E-08
  9.7141E-08
  9.7139E-08
  9.7143E-08
  9.7142E-08
  9.7141E-08
  9.7145E-08
  9.7143E-08
  9.7142E-08
  3.7562E-07
  3.7561E-07
  3.7561E-07
  3.7562E-07
  3.7562E-07
  3.7561E-07
  3.7563E-07
  3.7562E-07
  3.7562E-07
  1.3859E-06
  1.3859E-06
  1.3859E-06
  1.3859E-06
  1.3859E-06
  1.3859E-06
  1.3859E-06
  1.3859E-06
  1.3859E-06
  5.1291E-06
  5.1291E-06
  5.1291E-06
  5.1291E-06
  5.1291E-06
  5.1291E-06
  5.1292E-06
  5.1291E-06
  5.1291E-06
  1.9129E-05
  1.9129E-05
  1.9129E-05
  1.9129E-05
  1.9129E-05
  1.9129E-05
  1.9129E-05
  1.9129E-05
  1.9129E-05
  7.1418E-05
  7.1418E-05
  7.1418E-05
  7.1418E-05
  7.1418E-05
  7.1418E-05
  7.1418E-05
  7.1418E-05
  7.1418E-05
  2.6658E-04
  2.6658E-04
  2.6658E-04
  2.6658E-04
  2.6658E-04
  2.6658E-04
  2.6658E-04
  2.6658E-04
  2.6658E-04
  9.9496E-04
  9.9496E-04
  9.9496E-04
  9.9496E-04
  9.9496E-04
  9.9496E-04
  9.9496E-04
  9.9496E-04
  9.9496E-04
  3.7135E-03
  3.7135E-03
  3.7135E-03
  3.7135E-03
  3.7135E-03
  3.7135E-03
  3.7135E-03
  3.7135E-03
  3.7135E-03
  1.3860E-02
  1.3860E-02
  1.3860E-02
  1.3860E-02
  1.3860E-02
  1.3860E-02
  1.3860E-02
  1.3860E-02
  1.3860E-02
  5.1728E-02
  5.1728E-02
  5.1728E-02
  5.1728E-02
  5.1728E-02
  5.1728E-02
  5.1728E-02
  5.1728E-02
  5.1728E-02
  8.1593E-02
  8.1593E-02
  8.1593E-02
  8.1593E-02
  8.1593E-02
  8.1593E-02
  8.1593E-02
  8.1593E-02
  8.1593E-02
   6.9000E-03
  1.0274E-16
  1.3519E-16
  1.6764E-16
  5.1368E-17
  9.1389E-17
  1.3141E-16
  0.0000E+00
  4.7593E-17
  9.5187E-17
  3.0081E-16
  4.0417E-16
  5.0753E-16
  1.5041E-16
  2.7603E-16
  4.0166E-16
  0.0000E+00
  1.4789E-16
  2.9578E-16
  1.1989E-15
  1.6216E-15
  2.0444E-15
  5.9945E-16
  1.1094E-15
  1.6193E-15
  0.0000E+00
  5.9709E-16
  1.1942E-15
  4.4945E-15
  6.0860E-15
  7.6774E-15
  2.2472E-15
  4.1653E-15
  6.0834E-15
  0.0000E+00
  2.2447E-15
  4.4893E-15
  1.6780E-14
  2.2717E-14
  2.8655E-14
  8.3898E-15
  1.5553E-14
  2.2717E-14
  0.0000E+00
  8.3892E-15
  1.6778E-14
  9.2813E-14
  1.1106E-13
  1.2931E-13
  4.6407E-14
  7.8736E-14
  1.1107E-13
  0.0000E+00
  4.6409E-14
  9.2818E-14
  4.1085E-13
  4.6935E-13
  5.2786E-13
  2.0542E-13
  3.3739E-13
  4.6936E-13
  0.0000E+00
  2.0543E-13
  4.1086E-13
  6.6683E-09
  6.6683E-09
  6.6682E-09
  6.6683E-09
  6.6683E-09
  6.6683E-09
  6.6682E-09
  6.6683E-09
  6.6683E-09
  2.6672E-08
  2.6672E-08
  2.6671E-08
  2.6672E-08
  2.6672E-08
  2.6672E-08
  2.6673E-08
  2.6672E-08
  2.6672E-08
  1.0002E-07
  1.0002E-07
  1.0002E-07
  1.0002E-07
  1.0002E-07
  1.0002E-07
  1.0002E-07
  1.0002E-07
  1.0002E-07
  3.8675E-07
  3.8674E-07
  3.8674E-07
  3.8675E-07
  3.8675E-07
  3.8674E-07
  3.8676E-07
  3.8675E-07
  3.8675E-07
  1.4270E-06
  1.4269E-06
  1.4269E-06
  1.4270E-06
  1.4270E-06
  1.4269E-06
  1.4270E-06
  1.4270E-06
  1.4270E-06
  5.2811E-06
  5.2810E-06
  5.2810E-06
  5.2811E-06
  5.2811E-06
  5.2810E-06
  5.2811E-06
  5.2811E-06
  5.2811E-06
  1.9696E-05
  1.9696E-05
  1.9696E-05
  1.9696E-05
  1.9696E-05
  1.9696E-05
  1.9696E-05
  1.9696E-05
  1.9696E-05
  7.3533E-05
  7.3533E-05
  7.3533E-05
  7.3533E-05
  7.3533E-05
  7.3533E-05
  7.3533E-05
  7.3533E-05
  7.3533E-05
  2.7447E-04
  2.7447E-04
  2.7447E-04
  2.7447E-04
  2.7447E-04
  2.7447E-04
  2.7447E-04
  2.7447E-04
  2.7447E-04
  1.0244E-03
  1.0244E-03
  1.0244E-03
  1.0244E-03
  1.0244E-03
  1.0244E-03
  1.0244E-03
  1.0244E-03
  1.0244E-03
  3.8235E-03
  3.8235E-03
  3.8235E-03
  3.8235E-03
  3.8235E-03
  3.8235E-03
  3.8235E-03
  3.8235E-03
  3.8235E-03
  1.4270E-02
  1.4270E-02
  1.4270E-02
  1.4270E-02
  1.4270E-02
  1.4270E-02
  1.4270E-02
  1.4270E-02
  1.4270E-02
  5.3260E-02
  5.3260E-02
  5.3260E-02
  5.3260E-02
  5.3260E-02
  5.3260E-02
  5.3260E-02
  5.3260E-02
  5.3260E-02
  8.4010E-02
  8.4010E-02
  8.4010E-02
  8.4010E-02
  8.4010E-02
  8.4010E-02
  8.4010E-02
  8.4010E-02
  8.4010E-02
   7.0000E-03
  1.0873E-16
  1.4319E-16
  1.7764E-16
  5.4367E-17
  9.6830E-17
  1.3929E-16
  0.0000E+00
  5.0475E-17
  1.0095E-16
  3.1859E-16
  4.2815E-16
  5.3771E-16
  1.5930E-16
  2.9243E-16
  4.2556E-16
  0.0000E+00
  1.5670E-16
  3.1341E-16
  1.2699E-15
  1.7177E-15
  2.1655E-15
  6.3495E-16
  1.1751E-15
  1.7153E-15
  0.0000E+00
  6.3252E-16
  1.2650E-15
  4.7607E-15
  6.4463E-15
  8.1320E-15
  2.3803E-15
  4.4120E-15
  6.4437E-15
  0.0000E+00
  2.3777E-15
  4.7554E-15
  1.7773E-14
  2.4063E-14
  3.0352E-14
  8.8867E-15
  1.6474E-14
  2.4062E-14
  0.0000E+00
  8.8861E-15
  1.7772E-14
  9.6168E-14
  1.1566E-13
  1.3514E-13
  4.8084E-14
  8.1871E-14
  1.1566E-13
  0.0000E+00
  4.8087E-14
  9.6173E-14
  4.2275E-13
  4.8574E-13
  5.4873E-13
  2.1137E-13
  3.4856E-13
  4.8574E-13
  0.0000E+00
  2.1138E-13
  4.2276E-13
  6.8630E-09
  6.8630E-09
  6.8629E-09
  6.8630E-09
  6.8630E-09
  6.8630E-09
  6.8629E-09
  6.8630E-09
  6.8630E-09
  2.7451E-08
  2.7450E-08
  2.7450E-08
  2.7451E-08
  2.7451E-08
  2.7450E-08
  2.7452E-08
  2.7451E-08
  2.7451E-08
  1.0294E-07
  1.0294E-07
  1.0294E-07
  1.0294E-07
  1.0294E-07
  1.0294E-07
  1.0294E-07
  1.0294E-07
  1.0294E-07
  3.9804E-07
  3.9803E-07
  3.9803E-07
  3.9804E-07
  3.9804E-07
  3.9803E-07
  3.9805E-07
  3.9804E-07
  3.9804E-07
  1.4686E-06
  1.4686E-06
  1.4686E-06
  1.4686E-06
  1.4686E-06
  1.4686E-06
  1.4687E-06
  1.4686E-06
  1.4686E-06
  5.4353E-06
  5.4352E-06
  5.4352E-06
  5.4353E-06
  5.4353E-06
  5.4352E-06
  5.4353E-06
  5.4353E-06
  5.4353E-06
  2.0270E-05
  2.0270E-05
  2.0270E-05
  2.0270E-05
  2.0270E-05
  2.0270E-05
  2.0270E-05
  2.0270E-05
  2.0270E-05
  7.5679E-05
  7.5679E-05
  7.5679E-05
  7.5679E-05
  7.5679E-05
  7.5679E-05
  7.5679E-05
  7.5679E-05
  7.5679E-05
  2.8249E-04
  2.8249E-04
  2.8249E-04
  2.8249E-04
  2.8249E-04
  2.8249E-04
  2.8249E-04
  2.8249E-04
  2.8249E-04
  1.0543E-03
  1.0543E-03
  1.0543E-03
  1.0543E-03
  1.0543E-03
  1.0543E-03
  1.0543E-03
  1.0543E-03
  1.0543E-03
  3.9351E-03
  3.9351E-03
  3.9351E-03
  3.9351E-03
  3.9351E-03
  3.9351E-03
  3.9351E-03
  3.9351E-03
  3.9351E-03
  1.4687E-02
  1.4687E-02
  1.4687E-02
  1.4687E-02
  1.4687E-02
  1.4687E-02
  1.4687E-02
  1.4687E-02
  1.4687E-02
  5.4815E-02
  5.4815E-02
  5.4815E-02
  5.4815E-02
  5.4815E-02
  5.4815E-02
  5.4815E-02
  5.4815E-02
  5.4815E-02
  8.6463E-02
  8.6463E-02
  8.6463E-02
  8.6463E-02
  8.6463E-02
  8.6463E-02
  8.6463E-02
  8.6463E-02
  8.6463E-02
   7.1000E-03
  1.1499E-16
  1.5154E-16
  1.8808E-16
  5.7496E-17
  1.0251E-16
  1.4752E-16
  0.0000E+00
  5.3485E-17
  1.0697E-16
  3.3715E-16
  4.5318E-16
  5.6920E-16
  1.6858E-16
  3.0954E-16
  4.5051E-16
  0.0000E+00
  1.6590E-16
  3.3181E-16
  1.3440E-15
  1.8180E-15
  2.2920E-15
  6.7201E-16
  1.2437E-15
  1.8155E-15
  0.0000E+00
  6.6950E-16
  1.3390E-15
  5.0385E-15
  6.8225E-15
  8.6065E-15
  2.5193E-15
  4.6695E-15
  6.8198E-15
  0.0000E+00
  2.5165E-15
  5.0331E-15
  1.8811E-14
  2.5467E-14
  3.2123E-14
  9.4054E-15
  1.7436E-14
  2.5466E-14
  0.0000E+00
  9.4048E-15
  1.8810E-14
  9.9698E-14
  1.2048E-13
  1.4127E-13
  4.9849E-14
  8.5167E-14
  1.2048E-13
  0.0000E+00
  4.9852E-14
  9.9703E-14
  4.3532E-13
  5.0303E-13
  5.7073E-13
  2.1766E-13
  3.6035E-13
  5.0303E-13
  0.0000E+00
  2.1767E-13
  4.3534E-13
  7.0605E-09
  7.0604E-09
  7.0604E-09
  7.0604E-09
  7.0604E-09
  7.0604E-09
  7.0604E-09
  7.0604E-09
  7.0605E-09
  2.8241E-08
  2.8240E-08
  2.8240E-08
  2.8241E-08
  2.8241E-08
  2.8240E-08
  2.8241E-08
  2.8241E-08
  2.8241E-08
  1.0590E-07
  1.0590E-07
  1.0590E-07
  1.0590E-07
  1.0590E-07
  1.0590E-07
  1.0591E-07
  1.0590E-07
  1.0590E-07
  4.0949E-07
  4.0949E-07
  4.0948E-07
  4.0950E-07
  4.0949E-07
  4.0949E-07
  4.0950E-07
  4.0950E-07
  4.0949E-07
  1.5109E-06
  1.5109E-06
  1.5108E-06
  1.5109E-06
  1.5109E-06
  1.5109E-06
  1.5109E-06
  1.5109E-06
  1.5109E-06
  5.5916E-06
  5.5916E-06
  5.5916E-06
  5.5917E-06
  5.5916E-06
  5.5916E-06
  5.5917E-06
  5.5917E-06
  5.5916E-06
  2.0854E-05
  2.0854E-05
  2.0854E-05
  2.0854E-05
  2.0854E-05
  2.0854E-05
  2.0854E-05
  2.0854E-05
  2.0854E-05
  7.7856E-05
  7.7856E-05
  7.7856E-05
  7.7856E-05
  7.7856E-05
  7.7856E-05
  7.7856E-05
  7.7856E-05
  7.7856E-05
  2.9061E-04
  2.9061E-04
  2.9061E-04
  2.9061E-04
  2.9061E-04
  2.9061E-04
  2.9061E-04
  2.9061E-04
  2.9061E-04
  1.0847E-03
  1.0847E-03
  1.0847E-03
  1.0847E-03
  1.0847E-03
  1.0847E-03
  1.0847E-03
  1.0847E-03
  1.0847E-03
  4.0483E-03
  4.0483E-03
  4.0483E-03
  4.0483E-03
  4.0483E-03
  4.0483E-03
  4.0483E-03
  4.0483E-03
  4.0483E-03
  1.5110E-02
  1.5110E-02
  1.5110E-02
  1.5110E-02
  1.5110E-02
  1.5110E-02
  1.5110E-02
  1.5110E-02
  1.5110E-02
  5.6392E-02
  5.6392E-02
  5.6392E-02
  5.6392E-02
  5.6392E-02
  5.6392E-02
  5.6392E-02
  5.6392E-02
  5.6392E-02
  8.8951E-02
  8.8951E-02
  8.8951E-02
  8.8951E-02
  8.8951E-02
  8.8951E-02
  8.8951E-02
  8.8951E-02
  8.8951E-02
   7.2000E-03
  1.2152E-16
  1.6025E-16
  1.9897E-16
  6.0759E-17
  1.0844E-16
  1.5612E-16
  0.0000E+00
  5.6628E-17
  1.1326E-16
  3.5651E-16
  4.7929E-16
  6.0206E-16
  1.7826E-16
  3.2739E-16
  4.7653E-16
  0.0000E+00
  1.7550E-16
  3.5101E-16
  1.4213E-15
  1.9226E-15
  2.4238E-15
  7.1066E-16
  1.3153E-15
  1.9200E-15
  0.0000E+00
  7.0809E-16
  1.4162E-15
  5.3284E-15
  7.2149E-15
  9.1015E-15
  2.6642E-15
  4.9382E-15
  7.2121E-15
  0.0000E+00
  2.6614E-15
  5.3228E-15
  1.9893E-14
  2.6932E-14
  3.3971E-14
  9.9464E-15
  1.8439E-14
  2.6931E-14
  0.0000E+00
  9.9459E-15
  1.9892E-14
  1.0341E-13
  1.2555E-13
  1.4770E-13
  5.1703E-14
  8.8629E-14
  1.2555E-13
  0.0000E+00
  5.1706E-14
  1.0341E-13
  4.4859E-13
  5.2124E-13
  5.9390E-13
  2.2429E-13
  3.7277E-13
  5.2125E-13
  0.0000E+00
  2.2430E-13
  4.4860E-13
  7.2608E-09
  7.2607E-09
  7.2606E-09
  7.2607E-09
  7.2607E-09
  7.2607E-09
  7.2607E-09
  7.2607E-09
  7.2608E-09
  2.9042E-08
  2.9041E-08
  2.9041E-08
  2.9042E-08
  2.9042E-08
  2.9041E-08
  2.9043E-08
  2.9042E-08
  2.9042E-08
  1.0891E-07
  1.0890E-07
  1.0890E-07
  1.0891E-07
  1.0891E-07
  1.0890E-07
  1.0891E-07
  1.0891E-07
  1.0891E-07
  4.2111E-07
  4.2110E-07
  4.2109E-07
  4.2111E-07
  4.2111E-07
  4.2110E-07
  4.2112E-07
  4.2111E-07
  4.2111E-07
  1.5537E-06
  1.5537E-06
  1.5537E-06
  1.5538E-06
  1.5537E-06
  1.5537E-06
  1.5538E-06
  1.5538E-06
  1.5537E-06
  5.7503E-06
  5.7502E-06
  5.7502E-06
  5.7503E-06
  5.7503E-06
  5.7502E-06
  5.7503E-06
  5.7503E-06
  5.7503E-06
  2.1445E-05
  2.1445E-05
  2.1445E-05
  2.1445E-05
  2.1445E-05
  2.1445E-05
  2.1445E-05
  2.1445E-05
  2.1445E-05
  8.0064E-05
  8.0064E-05
  8.0064E-05
  8.0064E-05
  8.0064E-05
  8.0064E-05
  8.0064E-05
  8.0064E-05
  8.0064E-05
  2.9885E-04
  2.9885E-04
  2.9885E-04
  2.9885E-04
  2.9885E-04
  2.9885E-04
  2.9885E-04
  2.9885E-04
  2.9885E-04
  1.1154E-03
  1.1154E-03
  1.1154E-03
  1.1154E-03
  1.1154E-03
  1.1154E-03
  1.1154E-03
  1.1154E-03
  1.1154E-03
  4.1631E-03
  4.1631E-03
  4.1631E-03
  4.1631E-03
  4.1631E-03
  4.1631E-03
  4.1631E-03
  4.1631E-03
  4.1631E-03
  1.5538E-02
  1.5538E-02
  1.5538E-02
  1.5538E-02
  1.5538E-02
  1.5538E-02
  1.5538E-02
  1.5538E-02
  1.5538E-02
  5.7992E-02
  5.7992E-02
  5.7992E-02
  5.7992E-02
  5.7992E-02
  5.7992E-02
  5.7992E-02
  5.7992E-02
  5.7992E-02
  9.1474E-02
  9.1474E-02
  9.1474E-02
  9.1474E-02
  9.1474E-02
  9.1474E-02
  9.1474E-02
  9.1474E-02
  9.1474E-02
   7.3000E-03
  1.2832E-16
  1.6933E-16
  2.1034E-16
  6.4160E-17
  1.1462E-16
  1.6507E-16
  0.0000E+00
  5.9906E-17
  1.1981E-16
  3.7669E-16
  5.0651E-16
  6.3632E-16
  1.8835E-16
  3.4601E-16
  5.0367E-16
  0.0000E+00
  1.8551E-16
  3.7103E-16
  1.5019E-15
  2.0316E-15
  2.5614E-15
  7.5096E-16
  1.3900E-15
  2.0290E-15
  0.0000E+00
  7.4831E-16
  1.4966E-15
  5.6306E-15
  7.6240E-15
  9.6175E-15
  2.8153E-15
  5.2182E-15
  7.6211E-15
  0.0000E+00
  2.8124E-15
  5.6248E-15
  2.1021E-14
  2.8459E-14
  3.5897E-14
  1.0511E-14
  1.9484E-14
  2.8458E-14
  0.0000E+00
  1.0510E-14
  2.1020E-14
  1.0730E-13
  1.3087E-13
  1.5444E-13
  5.3650E-14
  9.2260E-14
  1.3087E-13
  0.0000E+00
  5.3653E-14
  1.0731E-13
  4.6256E-13
  5.4042E-13
  6.1827E-13
  2.3128E-13
  3.8585E-13
  5.4042E-13
  0.0000E+00
  2.3129E-13
  4.6258E-13
  7.4638E-09
  7.4638E-09
  7.4637E-09
  7.4638E-09
  7.4638E-09
  7.4638E-09
  7.4637E-09
  7.4638E-09
  7.4638E-09
  2.9854E-08
  2.9853E-08
  2.9853E-08
  2.9854E-08
  2.9854E-08
  2.9853E-08
  2.9855E-08
  2.9854E-08
  2.9854E-08
  1.1195E-07
  1.1195E-07
  1.1195E-07
  1.1195E-07
  1.1195E-07
  1.1195E-07
  1.1196E-07
  1.1195E-07
  1.1195E-07
  4.3288E-07
  4.3288E-07
  4.3287E-07
  4.3289E-07
  4.3288E-07
  4.3288E-07
  4.3290E-07
  4.3289E-07
  4.3288E-07
  1.5972E-06
  1.5972E-06
  1.5972E-06
  1.5972E-06
  1.5972E-06
  1.5972E-06
  1.5972E-06
  1.5972E-06
  1.5972E-06
  5.9111E-06
  5.9111E-06
  5.9110E-06
  5.9111E-06
  5.9111E-06
  5.9111E-06
  5.9112E-06
  5.9111E-06
  5.9111E-06
  2.2045E-05
  2.2045E-05
  2.2045E-05
  2.2045E-05
  2.2045E-05
  2.2045E-05
  2.2045E-05
  2.2045E-05
  2.2045E-05
  8.2302E-05
  8.2302E-05
  8.2302E-05
  8.2302E-05
  8.2302E-05
  8.2302E-05
  8.2302E-05
  8.2302E-05
  8.2302E-05
  3.0721E-04
  3.0721E-04
  3.0721E-04
  3.0721E-04
  3.0721E-04
  3.0721E-04
  3.0721E-04
  3.0721E-04
  3.0721E-04
  1.1466E-03
  1.1466E-03
  1.1466E-03
  1.1466E-03
  1.1466E-03
  1.1466E-03
  1.1466E-03
  1.1466E-03
  1.1466E-03
  4.2795E-03
  4.2795E-03
  4.2795E-03
  4.2795E-03
  4.2795E-03
  4.2795E-03
  4.2795E-03
  4.2795E-03
  4.2795E-03
  1.5973E-02
  1.5973E-02
  1.5973E-02
  1.5973E-02
  1.5973E-02
  1.5973E-02
  1.5973E-02
  1.5973E-02
  1.5973E-02
  5.9614E-02
  5.9614E-02
  5.9614E-02
  5.9614E-02
  5.9614E-02
  5.9614E-02
  5.9614E-02
  5.9614E-02
  5.9614E-02
  9.4032E-02
  9.4032E-02
  9.4032E-02
  9.4032E-02
  9.4032E-02
  9.4032E-02
  9.4032E-02
  9.4032E-02
  9.4032E-02
   7.4000E-03
  1.3540E-16
  1.7879E-16
  2.2218E-16
  6.7702E-17
  1.2106E-16
  1.7441E-16
  0.0000E+00
  6.3324E-17
  1.2665E-16
  3.9772E-16
  5.3487E-16
  6.7202E-16
  1.9886E-16
  3.6541E-16
  5.3195E-16
  0.0000E+00
  1.9594E-16
  3.9189E-16
  1.5859E-15
  2.1453E-15
  2.7046E-15
  7.9294E-16
  1.4677E-15
  2.1425E-15
  0.0000E+00
  7.9022E-16
  1.5804E-15
  5.9454E-15
  8.0503E-15
  1.0155E-14
  2.9727E-15
  5.5100E-15
  8.0473E-15
  0.0000E+00
  2.9697E-15
  5.9395E-15
  2.2197E-14
  3.0050E-14
  3.7904E-14
  1.1098E-14
  2.0574E-14
  3.0050E-14
  0.0000E+00
  1.1098E-14
  2.2195E-14
  1.1138E-13
  1.3644E-13
  1.6150E-13
  5.5691E-14
  9.6067E-14
  1.3644E-13
  0.0000E+00
  5.5694E-14
  1.1139E-13
  5.5012E-13
  6.2832E-13
  7.0652E-13
  2.7506E-13
  4.5169E-13
  6.2833E-13
  0.0000E+00
  2.7507E-13
  5.5013E-13
  7.6698E-09
  7.6698E-09
  7.6697E-09
  7.6697E-09
  7.6698E-09
  7.6698E-09
  7.6696E-09
  7.6697E-09
  7.6698E-09
  3.0677E-08
  3.0677E-08
  3.0676E-08
  3.0678E-08
  3.0677E-08
  3.0677E-08
  3.0679E-08
  3.0678E-08
  3.0677E-08
  1.1504E-07
  1.1504E-07
  1.1504E-07
  1.1504E-07
  1.1504E-07
  1.1504E-07
  1.1504E-07
  1.1504E-07
  1.1504E-07
  4.4483E-07
  4.4482E-07
  4.4481E-07
  4.4483E-07
  4.4483E-07
  4.4482E-07
  4.4484E-07
  4.4483E-07
  4.4483E-07
  1.6413E-06
  1.6412E-06
  1.6412E-06
  1.6413E-06
  1.6413E-06
  1.6412E-06
  1.6413E-06
  1.6413E-06
  1.6413E-06
  6.0741E-06
  6.0741E-06
  6.0741E-06
  6.0742E-06
  6.0741E-06
  6.0741E-06
  6.0742E-06
  6.0742E-06
  6.0741E-06
  2.2653E-05
  2.2653E-05
  2.2653E-05
  2.2653E-05
  2.2653E-05
  2.2653E-05
  2.2653E-05
  2.2653E-05
  2.2653E-05
  8.4572E-05
  8.4572E-05
  8.4572E-05
  8.4572E-05
  8.4572E-05
  8.4572E-05
  8.4572E-05
  8.4572E-05
  8.4572E-05
  3.1568E-04
  3.1568E-04
  3.1568E-04
  3.1568E-04
  3.1568E-04
  3.1568E-04
  3.1568E-04
  3.1568E-04
  3.1568E-04
  1.1782E-03
  1.1782E-03
  1.1782E-03
  1.1782E-03
  1.1782E-03
  1.1782E-03
  1.1782E-03
  1.1782E-03
  1.1782E-03
  4.3976E-03
  4.3976E-03
  4.3976E-03
  4.3976E-03
  4.3976E-03
  4.3976E-03
  4.3976E-03
  4.3976E-03
  4.3976E-03
  1.6413E-02
  1.6413E-02
  1.6413E-02
  1.6413E-02
  1.6413E-02
  1.6413E-02
  1.6413E-02
  1.6413E-02
  1.6413E-02
  6.1258E-02
  6.1258E-02
  6.1258E-02
  6.1258E-02
  6.1258E-02
  6.1258E-02
  6.1258E-02
  6.1258E-02
  6.1258E-02
  9.6626E-02
  9.6626E-02
  9.6626E-02
  9.6626E-02
  9.6626E-02
  9.6626E-02
  9.6626E-02
  9.6626E-02
  9.6626E-02
   7.5000E-03
  1.4278E-16
  1.8865E-16
  2.3451E-16
  7.1390E-17
  1.2777E-16
  1.8414E-16
  0.0000E+00
  6.6886E-17
  1.3377E-16
  4.1961E-16
  5.6441E-16
  7.0920E-16
  2.0981E-16
  3.8561E-16
  5.6141E-16
  0.0000E+00
  2.0681E-16
  4.1361E-16
  1.6733E-15
  2.2636E-15
  2.8538E-15
  8.3667E-16
  1.5487E-15
  2.2608E-15
  0.0000E+00
  8.3387E-16
  1.6677E-15
  6.2733E-15
  8.4941E-15
  1.0715E-14
  3.1367E-15
  5.8139E-15
  8.4911E-15
  0.0000E+00
  3.1336E-15
  6.2672E-15
  2.3421E-14
  3.1707E-14
  3.9994E-14
  1.1710E-14
  2.1708E-14
  3.1707E-14
  0.0000E+00
  1.1710E-14
  2.3419E-14
  1.1566E-13
  1.4227E-13
  1.6889E-13
  5.7829E-14
  1.0005E-13
  1.4228E-13
  0.0000E+00
  5.7832E-14
  1.1566E-13
  5.6470E-13
  6.4838E-13
  7.3207E-13
  2.8235E-13
  4.6537E-13
  6.4839E-13
  0.0000E+00
  2.8235E-13
  5.6471E-13
  7.8785E-09
  7.8785E-09
  7.8784E-09
  7.8784E-09
  7.8784E-09
  7.8785E-09
  7.8783E-09
  7.8784E-09
  7.8785E-09
  3.1512E-08
  3.1511E-08
  3.1511E-08
  3.1513E-08
  3.1512E-08
  3.1511E-08
  3.1513E-08
  3.1513E-08
  3.1512E-08
  1.1817E-07
  1.1817E-07
  1.1817E-07
  1.1817E-07
  1.1817E-07
  1.1817E-07
  1.1817E-07
  1.1817E-07
  1.1817E-07
  4.5693E-07
  4.5692E-07
  4.5691E-07
  4.5694E-07
  4.5693E-07
  4.5692E-07
  4.5694E-07
  4.5694E-07
  4.5693E-07
  1.6859E-06
  1.6859E-06
  1.6859E-06
  1.6859E-06
  1.6859E-06
  1.6859E-06
  1.6860E-06
  1.6859E-06
  1.6859E-06
  6.2394E-06
  6.2394E-06
  6.2393E-06
  6.2394E-06
  6.2394E-06
  6.2394E-06
  6.2395E-06
  6.2394E-06
  6.2394E-06
  2.3269E-05
  2.3269E-05
  2.3269E-05
  2.3269E-05
  2.3269E-05
  2.3269E-05
  2.3269E-05
  2.3269E-05
  2.3269E-05
  8.6872E-05
  8.6872E-05
  8.6872E-05
  8.6872E-05
  8.6872E-05
  8.6872E-05
  8.6872E-05
  8.6872E-05
  8.6872E-05
  3.2427E-04
  3.2427E-04
  3.2427E-04
  3.2427E-04
  3.2427E-04
  3.2427E-04
  3.2427E-04
  3.2427E-04
  3.2427E-04
  1.2103E-03
  1.2103E-03
  1.2103E-03
  1.2103E-03
  1.2103E-03
  1.2103E-03
  1.2103E-03
  1.2103E-03
  1.2103E-03
  4.5172E-03
  4.5172E-03
  4.5172E-03
  4.5172E-03
  4.5172E-03
  4.5172E-03
  4.5172E-03
  4.5172E-03
  4.5172E-03
  1.6860E-02
  1.6860E-02
  1.6860E-02
  1.6860E-02
  1.6860E-02
  1.6860E-02
  1.6860E-02
  1.6860E-02
  1.6860E-02
  6.2925E-02
  6.2925E-02
  6.2925E-02
  6.2925E-02
  6.2925E-02
  6.2925E-02
  6.2925E-02
  6.2925E-02
  6.2925E-02
  9.9255E-02
  9.9255E-02
  9.9255E-02
  9.9255E-02
  9.9255E-02
  9.9255E-02
  9.9255E-02
  9.9255E-02
  9.9255E-02
   7.6000E-03
  1.5045E-16
  1.9890E-16
  2.4735E-16
  7.5226E-17
  1.3475E-16
  1.9427E-16
  0.0000E+00
  7.0596E-17
  1.4119E-16
  4.4240E-16
  5.9515E-16
  7.4791E-16
  2.2120E-16
  4.0664E-16
  5.9207E-16
  0.0000E+00
  2.1812E-16
  4.3623E-16
  1.7643E-15
  2.3867E-15
  3.0091E-15
  8.8217E-16
  1.6330E-15
  2.3839E-15
  0.0000E+00
  8.7930E-16
  1.7586E-15
  6.6146E-15
  8.9561E-15
  1.1298E-14
  3.3073E-15
  6.1301E-15
  8.9530E-15
  0.0000E+00
  3.3042E-15
  6.6083E-15
  2.4695E-14
  3.3432E-14
  4.2169E-14
  1.2347E-14
  2.2889E-14
  3.3431E-14
  0.0000E+00
  1.2347E-14
  2.4693E-14
  1.5648E-13
  1.8216E-13
  2.0784E-13
  7.8242E-14
  1.3020E-13
  1.8217E-13
  0.0000E+00
  7.8245E-14
  1.5649E-13
  6.4340E-13
  7.2573E-13
  8.0806E-13
  3.2170E-13
  5.2372E-13
  7.2573E-13
  0.0000E+00
  3.2171E-13
  6.4341E-13
  8.0900E-09
  8.0899E-09
  8.0899E-09
  8.0899E-09
  8.0899E-09
  8.0899E-09
  8.0898E-09
  8.0899E-09
  8.0900E-09
  3.2358E-08
  3.2357E-08
  3.2357E-08
  3.2359E-08
  3.2358E-08
  3.2357E-08
  3.2359E-08
  3.2359E-08
  3.2358E-08
  1.2134E-07
  1.2134E-07
  1.2134E-07
  1.2134E-07
  1.2134E-07
  1.2134E-07
  1.2135E-07
  1.2134E-07
  1.2134E-07
  4.6919E-07
  4.6919E-07
  4.6918E-07
  4.6920E-07
  4.6919E-07
  4.6919E-07
  4.6921E-07
  4.6920E-07
  4.6919E-07
  1.7312E-06
  1.7311E-06
  1.7311E-06
  1.7312E-06
  1.7312E-06
  1.7311E-06
  1.7312E-06
  1.7312E-06
  1.7312E-06
  6.4069E-06
  6.4069E-06
  6.4068E-06
  6.4069E-06
  6.4069E-06
  6.4069E-06
  6.4070E-06
  6.4069E-06
  6.4069E-06
  2.3893E-05
  2.3893E-05
  2.3893E-05
  2.3893E-05
  2.3893E-05
  2.3893E-05
  2.3893E-05
  2.3893E-05
  2.3893E-05
  8.9203E-05
  8.9203E-05
  8.9203E-05
  8.9203E-05
  8.9203E-05
  8.9203E-05
  8.9203E-05
  8.9203E-05
  8.9203E-05
  3.3297E-04
  3.3297E-04
  3.3297E-04
  3.3297E-04
  3.3297E-04
  3.3297E-04
  3.3297E-04
  3.3297E-04
  3.3297E-04
  1.2428E-03
  1.2428E-03
  1.2428E-03
  1.2428E-03
  1.2428E-03
  1.2428E-03
  1.2428E-03
  1.2428E-03
  1.2428E-03
  4.6384E-03
  4.6384E-03
  4.6384E-03
  4.6384E-03
  4.6384E-03
  4.6384E-03
  4.6384E-03
  4.6384E-03
  4.6384E-03
  1.7312E-02
  1.7312E-02
  1.7312E-02
  1.7312E-02
  1.7312E-02
  1.7312E-02
  1.7312E-02
  1.7312E-02
  1.7312E-02
  6.4614E-02
  6.4614E-02
  6.4614E-02
  6.4614E-02
  6.4614E-02
  6.4614E-02
  6.4614E-02
  6.4614E-02
  6.4614E-02
  1.0192E-01
  1.0192E-01
  1.0192E-01
  1.0192E-01
  1.0192E-01
  1.0192E-01
  1.0192E-01
  1.0192E-01
  1.0192E-01
   7.7000E-03
  1.5843E-16
  2.0957E-16
  2.6071E-16
  7.9216E-17
  1.4201E-16
  2.0481E-16
  0.0000E+00
  7.4456E-17
  1.4891E-16
  4.6610E-16
  6.2714E-16
  7.8817E-16
  2.3305E-16
  4.2851E-16
  6.2397E-16
  0.0000E+00
  2.2988E-16
  4.5977E-16
  1.8590E-15
  2.5149E-15
  3.1707E-15
  9.2951E-16
  1.7207E-15
  2.5119E-15
  0.0000E+00
  9.2656E-16
  1.8531E-15
  6.9696E-15
  9.4367E-15
  1.1904E-14
  3.4848E-15
  6.4591E-15
  9.4335E-15
  0.0000E+00
  3.4816E-15
  6.9631E-15
  2.6020E-14
  3.5226E-14
  4.4432E-14
  1.3010E-14
  2.4118E-14
  3.5225E-14
  0.0000E+00
  1.3009E-14
  2.6019E-14
  1.6075E-13
  1.8802E-13
  2.1529E-13
  8.0373E-14
  1.3420E-13
  1.8802E-13
  0.0000E+00
  8.0375E-14
  1.6075E-13
  6.5886E-13
  7.4706E-13
  8.3526E-13
  3.2943E-13
  5.3825E-13
  7.4707E-13
  0.0000E+00
  3.2944E-13
  6.5887E-13
  8.3043E-09
  8.3042E-09
  8.3041E-09
  8.3042E-09
  8.3042E-09
  8.3042E-09
  8.3041E-09
  8.3042E-09
  8.3043E-09
  3.3215E-08
  3.3214E-08
  3.3214E-08
  3.3216E-08
  3.3215E-08
  3.3214E-08
  3.3216E-08
  3.3216E-08
  3.3215E-08
  1.2456E-07
  1.2455E-07
  1.2455E-07
  1.2456E-07
  1.2456E-07
  1.2455E-07
  1.2456E-07
  1.2456E-07
  1.2456E-07
  4.8162E-07
  4.8161E-07
  4.8161E-07
  4.8163E-07
  4.8162E-07
  4.8161E-07
  4.8164E-07
  4.8163E-07
  4.8162E-07
  1.7770E-06
  1.7770E-06
  1.7770E-06
  1.7770E-06
  1.7770E-06
  1.7770E-06
  1.7771E-06
  1.7770E-06
  1.7770E-06
  6.5766E-06
  6.5766E-06
  6.5765E-06
  6.5766E-06
  6.5766E-06
  6.5766E-06
  6.5767E-06
  6.5766E-06
  6.5766E-06
  2.4526E-05
  2.4526E-05
  2.4526E-05
  2.4526E-05
  2.4526E-05
  2.4526E-05
  2.4526E-05
  2.4526E-05
  2.4526E-05
  9.1565E-05
  9.1565E-05
  9.1565E-05
  9.1565E-05
  9.1565E-05
  9.1565E-05
  9.1565E-05
  9.1565E-05
  9.1565E-05
  3.4179E-04
  3.4179E-04
  3.4179E-04
  3.4179E-04
  3.4179E-04
  3.4179E-04
  3.4179E-04
  3.4179E-04
  3.4179E-04
  1.2757E-03
  1.2757E-03
  1.2757E-03
  1.2757E-03
  1.2757E-03
  1.2757E-03
  1.2757E-03
  1.2757E-03
  1.2757E-03
  4.7613E-03
  4.7613E-03
  4.7613E-03
  4.7613E-03
  4.7613E-03
  4.7613E-03
  4.7613E-03
  4.7613E-03
  4.7613E-03
  1.7771E-02
  1.7771E-02
  1.7771E-02
  1.7771E-02
  1.7771E-02
  1.7771E-02
  1.7771E-02
  1.7771E-02
  1.7771E-02
  6.6325E-02
  6.6325E-02
  6.6325E-02
  6.6325E-02
  6.6325E-02
  6.6325E-02
  6.6325E-02
  6.6325E-02
  6.6325E-02
  1.0462E-01
  1.0462E-01
  1.0462E-01
  1.0462E-01
  1.0462E-01
  1.0462E-01
  1.0462E-01
  1.0462E-01
  1.0462E-01
   7.8000E-03
  1.6673E-16
  2.2067E-16
  2.7461E-16
  8.3363E-17
  1.4957E-16
  2.1578E-16
  0.0000E+00
  7.8473E-17
  1.5695E-16
  4.9075E-16
  6.6039E-16
  8.3004E-16
  2.4537E-16
  4.5126E-16
  6.5714E-16
  0.0000E+00
  2.4212E-16
  4.8424E-16
  1.9575E-15
  2.6481E-15
  3.3386E-15
  9.7873E-16
  1.8119E-15
  2.6450E-15
  0.0000E+00
  9.7570E-16
  1.9514E-15
  7.3387E-15
  9.9364E-15
  1.2534E-14
  3.6693E-15
  6.8012E-15
  9.9331E-15
  0.0000E+00
  3.6660E-15
  7.3321E-15
  2.7398E-14
  3.7091E-14
  4.6785E-14
  1.3699E-14
  2.5395E-14
  3.7091E-14
  0.0000E+00
  1.3698E-14
  2.7397E-14
  1.6522E-13
  1.9415E-13
  2.2309E-13
  8.2608E-14
  1.3838E-13
  1.9415E-13
  0.0000E+00
  8.2611E-14
  1.6522E-13
  6.7513E-13
  7.6950E-13
  8.6386E-13
  3.3757E-13
  5.5353E-13
  7.6950E-13
  0.0000E+00
  3.3757E-13
  6.7515E-13
  8.5214E-09
  8.5213E-09
  8.5212E-09
  8.5213E-09
  8.5213E-09
  8.5213E-09
  8.5212E-09
  8.5213E-09
  8.5214E-09
  3.4083E-08
  3.4083E-08
  3.4082E-08
  3.4084E-08
  3.4083E-08
  3.4083E-08
  3.4085E-08
  3.4084E-08
  3.4083E-08
  1.2781E-07
  1.2781E-07
  1.2781E-07
  1.2782E-07
  1.2781E-07
  1.2781E-07
  1.2782E-07
  1.2782E-07
  1.2781E-07
  4.9421E-07
  4.9420E-07
  4.9420E-07
  4.9422E-07
  4.9421E-07
  4.9420E-07
  4.9423E-07
  4.9422E-07
  4.9421E-07
  1.8235E-06
  1.8235E-06
  1.8234E-06
  1.8235E-06
  1.8235E-06
  1.8235E-06
  1.8235E-06
  1.8235E-06
  1.8235E-06
  6.7485E-06
  6.7485E-06
  6.7484E-06
  6.7485E-06
  6.7485E-06
  6.7485E-06
  6.7486E-06
  6.7485E-06
  6.7485E-06
  2.5167E-05
  2.5167E-05
  2.5167E-05
  2.5167E-05
  2.5167E-05
  2.5167E-05
  2.5167E-05
  2.5167E-05
  2.5167E-05
  9.3958E-05
  9.3958E-05
  9.3958E-05
  9.3958E-05
  9.3958E-05
  9.3958E-05
  9.3958E-05
  9.3958E-05
  9.3958E-05
  3.5072E-04
  3.5072E-04
  3.5072E-04
  3.5072E-04
  3.5072E-04
  3.5072E-04
  3.5072E-04
  3.5072E-04
  3.5072E-04
  1.3090E-03
  1.3090E-03
  1.3090E-03
  1.3090E-03
  1.3090E-03
  1.3090E-03
  1.3090E-03
  1.3090E-03
  1.3090E-03
  4.8857E-03
  4.8857E-03
  4.8857E-03
  4.8857E-03
  4.8857E-03
  4.8857E-03
  4.8857E-03
  4.8857E-03
  4.8857E-03
  1.8235E-02
  1.8235E-02
  1.8235E-02
  1.8235E-02
  1.8235E-02
  1.8235E-02
  1.8235E-02
  1.8235E-02
  1.8235E-02
  6.8059E-02
  6.8059E-02
  6.8059E-02
  6.8059E-02
  6.8059E-02
  6.8059E-02
  6.8059E-02
  6.8059E-02
  6.8059E-02
  1.0735E-01
  1.0735E-01
  1.0735E-01
  1.0735E-01
  1.0735E-01
  1.0735E-01
  1.0735E-01
  1.0735E-01
  1.0735E-01
   7.9000E-03
  1.7534E-16
  2.3219E-16
  2.8905E-16
  8.7672E-17
  1.5742E-16
  2.2717E-16
  0.0000E+00
  8.2649E-17
  1.6530E-16
  5.1636E-16
  6.9495E-16
  8.7355E-16
  2.5818E-16
  4.7489E-16
  6.9161E-16
  0.0000E+00
  2.5483E-16
  5.0967E-16
  2.0598E-15
  2.7865E-15
  3.5132E-15
  1.0299E-15
  1.9066E-15
  2.7834E-15
  0.0000E+00
  1.0268E-15
  2.0535E-15
  7.7222E-15
  1.0456E-14
  1.3189E-14
  3.8611E-15
  7.1567E-15
  1.0452E-14
  0.0000E+00
  3.8577E-15
  7.7155E-15
  2.8830E-14
  3.9030E-14
  4.9230E-14
  1.4415E-14
  2.6722E-14
  3.9029E-14
  0.0000E+00
  1.4414E-14
  2.8828E-14
  1.6990E-13
  2.0058E-13
  2.3125E-13
  8.4950E-14
  1.4276E-13
  2.0058E-13
  0.0000E+00
  8.4953E-14
  1.6991E-13
  6.9225E-13
  7.9306E-13
  8.9387E-13
  3.4612E-13
  5.6960E-13
  7.9307E-13
  0.0000E+00
  3.4613E-13
  6.9226E-13
  8.7413E-09
  8.7412E-09
  8.7411E-09
  8.7412E-09
  8.7412E-09
  8.7412E-09
  8.7411E-09
  8.7412E-09
  8.7413E-09
  3.4963E-08
  3.4962E-08
  3.4961E-08
  3.4964E-08
  3.4963E-08
  3.4962E-08
  3.4964E-08
  3.4964E-08
  3.4963E-08
  1.3111E-07
  1.3111E-07
  1.3111E-07
  1.3111E-07
  1.3111E-07
  1.3111E-07
  1.3112E-07
  1.3111E-07
  1.3111E-07
  5.0697E-07
  5.0696E-07
  5.0695E-07
  5.0697E-07
  5.0697E-07
  5.0696E-07
  5.0698E-07
  5.0697E-07
  5.0697E-07
  1.8705E-06
  1.8705E-06
  1.8705E-06
  1.8705E-06
  1.8705E-06
  1.8705E-06
  1.8706E-06
  1.8705E-06
  1.8705E-06
  6.9226E-06
  6.9226E-06
  6.9226E-06
  6.9227E-06
  6.9226E-06
  6.9226E-06
  6.9227E-06
  6.9227E-06
  6.9226E-06
  2.5816E-05
  2.5816E-05
  2.5816E-05
  2.5816E-05
  2.5816E-05
  2.5816E-05
  2.5816E-05
  2.5816E-05
  2.5816E-05
  9.6381E-05
  9.6381E-05
  9.6381E-05
  9.6381E-05
  9.6381E-05
  9.6381E-05
  9.6381E-05
  9.6381E-05
  9.6381E-05
  3.5976E-04
  3.5976E-04
  3.5976E-04
  3.5976E-04
  3.5976E-04
  3.5976E-04
  3.5976E-04
  3.5976E-04
  3.5976E-04
  1.3428E-03
  1.3428E-03
  1.3428E-03
  1.3428E-03
  1.3428E-03
  1.3428E-03
  1.3428E-03
  1.3428E-03
  1.3428E-03
  5.0118E-03
  5.0118E-03
  5.0118E-03
  5.0118E-03
  5.0118E-03
  5.0118E-03
  5.0118E-03
  5.0118E-03
  5.0118E-03
  1.8706E-02
  1.8706E-02
  1.8706E-02
  1.8706E-02
  1.8706E-02
  1.8706E-02
  1.8706E-02
  1.8706E-02
  1.8706E-02
  6.9815E-02
  6.9815E-02
  6.9815E-02
  6.9815E-02
  6.9815E-02
  6.9815E-02
  6.9815E-02
  6.9815E-02
  6.9815E-02
  1.1012E-01
  1.1012E-01
  1.1012E-01
  1.1012E-01
  1.1012E-01
  1.1012E-01
  1.1012E-01
  1.1012E-01
  1.1012E-01
   8.0000E-03
  1.8429E-16
  2.4417E-16
  3.0405E-16
  9.2146E-17
  1.6558E-16
  2.3901E-16
  0.0000E+00
  8.6989E-17
  1.7398E-16
  5.4296E-16
  7.3085E-16
  9.1875E-16
  2.7148E-16
  4.9945E-16
  7.2742E-16
  0.0000E+00
  2.6805E-16
  5.3609E-16
  2.1660E-15
  2.9303E-15
  3.6945E-15
  1.0830E-15
  2.0050E-15
  2.9271E-15
  0.0000E+00
  1.0798E-15
  2.1596E-15
  8.1206E-15
  1.0995E-14
  1.3869E-14
  4.0603E-15
  7.5259E-15
  1.0991E-14
  0.0000E+00
  4.0568E-15
  8.1137E-15
  3.0317E-14
  4.1043E-14
  5.1769E-14
  1.5159E-14
  2.8101E-14
  4.1042E-14
  0.0000E+00
  1.5158E-14
  3.0316E-14
  1.7481E-13
  2.0730E-13
  2.3980E-13
  8.7403E-14
  1.4735E-13
  2.0731E-13
  0.0000E+00
  8.7406E-14
  1.7481E-13
  7.1022E-13
  8.1779E-13
  9.2535E-13
  3.5511E-13
  5.8645E-13
  8.1779E-13
  0.0000E+00
  3.5512E-13
  7.1024E-13
  8.9640E-09
  8.9639E-09
  8.9638E-09
  8.9639E-09
  8.9639E-09
  8.9639E-09
  8.9638E-09
  8.9639E-09
  8.9640E-09
  3.5854E-08
  3.5853E-08
  3.5852E-08
  3.5854E-08
  3.5854E-08
  3.5853E-08
  3.5855E-08
  3.5854E-08
  3.5854E-08
  1.3445E-07
  1.3445E-07
  1.3445E-07
  1.3445E-07
  1.3445E-07
  1.3445E-07
  1.3446E-07
  1.3445E-07
  1.3445E-07
  5.1988E-07
  5.1987E-07
  5.1986E-07
  5.1989E-07
  5.1988E-07
  5.1987E-07
  5.1990E-07
  5.1989E-07
  5.1988E-07
  1.9182E-06
  1.9182E-06
  1.9181E-06
  1.9182E-06
  1.9182E-06
  1.9182E-06
  1.9182E-06
  1.9182E-06
  1.9182E-06
  7.0990E-06
  7.0990E-06
  7.0989E-06
  7.0990E-06
  7.0990E-06
  7.0990E-06
  7.0991E-06
  7.0990E-06
  7.0990E-06
  2.6474E-05
  2.6474E-05
  2.6474E-05
  2.6474E-05
  2.6474E-05
  2.6474E-05
  2.6474E-05
  2.6474E-05
  2.6474E-05
  9.8836E-05
  9.8836E-05
  9.8836E-05
  9.8836E-05
  9.8836E-05
  9.8836E-05
  9.8836E-05
  9.8836E-05
  9.8836E-05
  3.6893E-04
  3.6893E-04
  3.6893E-04
  3.6893E-04
  3.6893E-04
  3.6893E-04
  3.6893E-04
  3.6893E-04
  3.6893E-04
  1.3770E-03
  1.3770E-03
  1.3770E-03
  1.3770E-03
  1.3770E-03
  1.3770E-03
  1.3770E-03
  1.3770E-03
  1.3770E-03
  5.1394E-03
  5.1394E-03
  5.1394E-03
  5.1394E-03
  5.1394E-03
  5.1394E-03
  5.1394E-03
  5.1394E-03
  5.1394E-03
  1.9182E-02
  1.9182E-02
  1.9182E-02
  1.9182E-02
  1.9182E-02
  1.9182E-02
  1.9182E-02
  1.9182E-02
  1.9182E-02
  7.1593E-02
  7.1593E-02
  7.1593E-02
  7.1593E-02
  7.1593E-02
  7.1593E-02
  7.1593E-02
  7.1593E-02
  7.1593E-02
  1.1293E-01
  1.1293E-01
  1.1293E-01
  1.1293E-01
  1.1293E-01
  1.1293E-01
  1.1293E-01
  1.1293E-01
  1.1293E-01
   8.1000E-03
  1.9358E-16
  2.5660E-16
  3.1963E-16
  9.6789E-17
  1.7405E-16
  2.5131E-16
  0.0000E+00
  9.1497E-17
  1.8299E-16
  5.7057E-16
  7.6812E-16
  9.6568E-16
  2.8529E-16
  5.2494E-16
  7.6460E-16
  0.0000E+00
  2.8176E-16
  5.6352E-16
  2.2763E-15
  3.0795E-15
  3.8827E-15
  1.1382E-15
  2.1072E-15
  3.0763E-15
  0.0000E+00
  1.1349E-15
  2.2698E-15
  8.5343E-15
  1.1555E-14
  1.4576E-14
  4.2671E-15
  7.9092E-15
  1.1551E-14
  0.0000E+00
  4.2636E-15
  8.5271E-15
  3.1862E-14
  4.3134E-14
  5.4406E-14
  1.5931E-14
  2.9532E-14
  4.3133E-14
  0.0000E+00
  1.5930E-14
  3.1860E-14
  1.7994E-13
  2.1434E-13
  2.4873E-13
  8.9969E-14
  1.5215E-13
  2.1434E-13
  0.0000E+00
  8.9973E-14
  1.7995E-13
  8.0160E-13
  9.1102E-13
  1.0204E-12
  4.0080E-13
  6.5592E-13
  9.1103E-13
  0.0000E+00
  4.0081E-13
  8.0162E-13
  9.1896E-09
  9.1895E-09
  9.1894E-09
  9.1894E-09
  9.1894E-09
  9.1895E-09
  9.1893E-09
  9.1894E-09
  9.1896E-09
  3.6755E-08
  3.6755E-08
  3.6754E-08
  3.6756E-08
  3.6755E-08
  3.6755E-08
  3.6757E-08
  3.6756E-08
  3.6755E-08
  1.3783E-07
  1.3783E-07
  1.3783E-07
  1.3784E-07
  1.3783E-07
  1.3783E-07
  1.3784E-07
  1.3784E-07
  1.3783E-07
  5.3296E-07
  5.3295E-07
  5.3294E-07
  5.3297E-07
  5.3296E-07
  5.3295E-07
  5.3298E-07
  5.3297E-07
  5.3296E-07
  1.9664E-06
  1.9664E-06
  1.9664E-06
  1.9665E-06
  1.9664E-06
  1.9664E-06
  1.9665E-06
  1.9665E-06
  1.9664E-06
  7.2776E-06
  7.2775E-06
  7.2775E-06
  7.2776E-06
  7.2776E-06
  7.2775E-06
  7.2776E-06
  7.2776E-06
  7.2776E-06
  2.7140E-05
  2.7140E-05
  2.7140E-05
  2.7140E-05
  2.7140E-05
  2.7140E-05
  2.7140E-05
  2.7140E-05
  2.7140E-05
  1.0132E-04
  1.0132E-04
  1.0132E-04
  1.0132E-04
  1.0132E-04
  1.0132E-04
  1.0132E-04
  1.0132E-04
  1.0132E-04
  3.7820E-04
  3.7820E-04
  3.7820E-04
  3.7820E-04
  3.7820E-04
  3.7820E-04
  3.7820E-04
  3.7820E-04
  3.7820E-04
  1.4116E-03
  1.4116E-03
  1.4116E-03
  1.4116E-03
  1.4116E-03
  1.4116E-03
  1.4116E-03
  1.4116E-03
  1.4116E-03
  5.2687E-03
  5.2687E-03
  5.2687E-03
  5.2687E-03
  5.2687E-03
  5.2687E-03
  5.2687E-03
  5.2687E-03
  5.2687E-03
  1.9665E-02
  1.9665E-02
  1.9665E-02
  1.9665E-02
  1.9665E-02
  1.9665E-02
  1.9665E-02
  1.9665E-02
  1.9665E-02
  7.3394E-02
  7.3394E-02
  7.3394E-02
  7.3394E-02
  7.3394E-02
  7.3394E-02
  7.3394E-02
  7.3394E-02
  7.3394E-02
  1.1577E-01
  1.1577E-01
  1.1577E-01
  1.1577E-01
  1.1577E-01
  1.1577E-01
  1.1577E-01
  1.1577E-01
  1.1577E-01
   8.2000E-03
  2.0321E-16
  2.6951E-16
  3.3580E-16
  1.0161E-16
  1.8284E-16
  2.6408E-16
  0.0000E+00
  9.6178E-17
  1.9236E-16
  5.9923E-16
  8.0680E-16
  1.0144E-15
  2.9961E-16
  5.5140E-16
  8.0319E-16
  0.0000E+00
  2.9600E-16
  5.9200E-16
  2.3908E-15
  3.2344E-15
  4.0781E-15
  1.1954E-15
  2.2132E-15
  3.2311E-15
  0.0000E+00
  1.1920E-15
  2.3841E-15
  8.9635E-15
  1.2136E-14
  1.5308E-14
  4.4817E-15
  8.3070E-15
  1.2132E-14
  0.0000E+00
  4.4781E-15
  8.9562E-15
  3.3464E-14
  4.5303E-14
  5.7142E-14
  1.6732E-14
  3.1017E-14
  4.5302E-14
  0.0000E+00
  1.6731E-14
  3.3462E-14
  1.8530E-13
  2.2168E-13
  2.5806E-13
  9.2652E-14
  1.5717E-13
  2.2169E-13
  0.0000E+00
  9.2656E-14
  1.8531E-13
  8.2055E-13
  9.3714E-13
  1.0537E-12
  4.1028E-13
  6.7371E-13
  9.3715E-13
  0.0000E+00
  4.1028E-13
  8.2057E-13
  9.4179E-09
  9.4178E-09
  9.4177E-09
  9.4177E-09
  9.4177E-09
  9.4178E-09
  9.4176E-09
  9.4177E-09
  9.4179E-09
  3.7669E-08
  3.7668E-08
  3.7667E-08
  3.7669E-08
  3.7669E-08
  3.7668E-08
  3.7670E-08
  3.7669E-08
  3.7669E-08
  1.4126E-07
  1.4125E-07
  1.4125E-07
  1.4126E-07
  1.4126E-07
  1.4125E-07
  1.4126E-07
  1.4126E-07
  1.4126E-07
  5.4620E-07
  5.4619E-07
  5.4618E-07
  5.4621E-07
  5.4620E-07
  5.4619E-07
  5.4622E-07
  5.4621E-07
  5.4620E-07
  2.0153E-06
  2.0153E-06
  2.0152E-06
  2.0153E-06
  2.0153E-06
  2.0153E-06
  2.0153E-06
  2.0153E-06
  2.0153E-06
  7.4583E-06
  7.4583E-06
  7.4583E-06
  7.4584E-06
  7.4583E-06
  7.4583E-06
  7.4584E-06
  7.4584E-06
  7.4583E-06
  2.7814E-05
  2.7814E-05
  2.7814E-05
  2.7814E-05
  2.7814E-05
  2.7814E-05
  2.7814E-05
  2.7814E-05
  2.7814E-05
  1.0384E-04
  1.0384E-04
  1.0384E-04
  1.0384E-04
  1.0384E-04
  1.0384E-04
  1.0384E-04
  1.0384E-04
  1.0384E-04
  3.8759E-04
  3.8759E-04
  3.8759E-04
  3.8759E-04
  3.8759E-04
  3.8759E-04
  3.8759E-04
  3.8759E-04
  3.8759E-04
  1.4467E-03
  1.4467E-03
  1.4467E-03
  1.4467E-03
  1.4467E-03
  1.4467E-03
  1.4467E-03
  1.4467E-03
  1.4467E-03
  5.3995E-03
  5.3995E-03
  5.3995E-03
  5.3995E-03
  5.3995E-03
  5.3995E-03
  5.3995E-03
  5.3995E-03
  5.3995E-03
  2.0153E-02
  2.0153E-02
  2.0153E-02
  2.0153E-02
  2.0153E-02
  2.0153E-02
  2.0153E-02
  2.0153E-02
  2.0153E-02
  7.5217E-02
  7.5217E-02
  7.5217E-02
  7.5217E-02
  7.5217E-02
  7.5217E-02
  7.5217E-02
  7.5217E-02
  7.5217E-02
  1.1865E-01
  1.1865E-01
  1.1865E-01
  1.1865E-01
  1.1865E-01
  1.1865E-01
  1.1865E-01
  1.1865E-01
  1.1865E-01
   8.3000E-03
  2.1321E-16
  2.8289E-16
  3.5257E-16
  1.0660E-16
  1.9196E-16
  2.7732E-16
  0.0000E+00
  1.0103E-16
  2.0207E-16
  6.2895E-16
  8.4693E-16
  1.0649E-15
  3.1447E-16
  5.7885E-16
  8.4322E-16
  0.0000E+00
  3.1077E-16
  6.2153E-16
  2.5095E-15
  3.3951E-15
  4.2807E-15
  1.2548E-15
  2.3232E-15
  3.3917E-15
  0.0000E+00
  1.2513E-15
  2.5027E-15
  9.4087E-15
  1.2739E-14
  1.6069E-14
  4.7044E-15
  8.7197E-15
  1.2735E-14
  0.0000E+00
  4.7006E-15
  9.4012E-15
  3.5126E-14
  4.7553E-14
  5.9979E-14
  1.7563E-14
  3.2558E-14
  4.7552E-14
  0.0000E+00
  1.7562E-14
  3.5125E-14
  1.9091E-13
  2.2935E-13
  2.6780E-13
  9.5455E-14
  1.6241E-13
  2.2936E-13
  0.0000E+00
  9.5459E-14
  1.9092E-13
  8.4043E-13
  9.6450E-13
  1.0886E-12
  4.2021E-13
  6.9236E-13
  9.6451E-13
  0.0000E+00
  4.2022E-13
  8.4044E-13
  9.6489E-09
  9.6488E-09
  9.6487E-09
  9.6488E-09
  9.6488E-09
  9.6488E-09
  9.6487E-09
  9.6488E-09
  9.6489E-09
  3.8593E-08
  3.8592E-08
  3.8591E-08
  3.8594E-08
  3.8593E-08
  3.8592E-08
  3.8595E-08
  3.8594E-08
  3.8593E-08
  1.4472E-07
  1.4472E-07
  1.4472E-07
  1.4473E-07
  1.4472E-07
  1.4472E-07
  1.4473E-07
  1.4473E-07
  1.4472E-07
  5.5960E-07
  5.5959E-07
  5.5958E-07
  5.5961E-07
  5.5960E-07
  5.5959E-07
  5.5962E-07
  5.5961E-07
  5.5960E-07
  2.0647E-06
  2.0647E-06
  2.0647E-06
  2.0648E-06
  2.0647E-06
  2.0647E-06
  2.0648E-06
  2.0648E-06
  2.0647E-06
  7.6413E-06
  7.6413E-06
  7.6413E-06
  7.6414E-06
  7.6413E-06
  7.6413E-06
  7.6414E-06
  7.6414E-06
  7.6413E-06
  2.8496E-05
  2.8496E-05
  2.8496E-05
  2.8496E-05
  2.8496E-05
  2.8496E-05
  2.8496E-05
  2.8496E-05
  2.8496E-05
  1.0638E-04
  1.0638E-04
  1.0638E-04
  1.0638E-04
  1.0638E-04
  1.0638E-04
  1.0638E-04
  1.0638E-04
  1.0638E-04
  3.9710E-04
  3.9710E-04
  3.9710E-04
  3.9710E-04
  3.9710E-04
  3.9710E-04
  3.9710E-04
  3.9710E-04
  3.9710E-04
  1.4822E-03
  1.4822E-03
  1.4822E-03
  1.4822E-03
  1.4822E-03
  1.4822E-03
  1.4822E-03
  1.4822E-03
  1.4822E-03
  5.5320E-03
  5.5320E-03
  5.5320E-03
  5.5320E-03
  5.5320E-03
  5.5320E-03
  5.5320E-03
  5.5320E-03
  5.5320E-03
  2.0648E-02
  2.0648E-02
  2.0648E-02
  2.0648E-02
  2.0648E-02
  2.0648E-02
  2.0648E-02
  2.0648E-02
  2.0648E-02
  7.7063E-02
  7.7063E-02
  7.7063E-02
  7.7063E-02
  7.7063E-02
  7.7063E-02
  7.7063E-02
  7.7063E-02
  7.7063E-02
  1.2156E-01
  1.2156E-01
  1.2156E-01
  1.2156E-01
  1.2156E-01
  1.2156E-01
  1.2156E-01
  1.2156E-01
  1.2156E-01
   8.4000E-03
  2.2356E-16
  2.9676E-16
  3.6997E-16
  1.1178E-16
  2.0142E-16
  2.9106E-16
  0.0000E+00
  1.0607E-16
  2.1214E-16
  6.5976E-16
  8.8852E-16
  1.1173E-15
  3.2988E-16
  6.0730E-16
  8.8472E-16
  0.0000E+00
  3.2608E-16
  6.5216E-16
  2.6326E-15
  3.5617E-15
  4.4908E-15
  1.3163E-15
  2.4373E-15
  3.5582E-15
  0.0000E+00
  1.3128E-15
  2.6256E-15
  9.8703E-15
  1.3364E-14
  1.6857E-14
  4.9352E-15
  9.1475E-15
  1.3360E-14
  0.0000E+00
  4.9313E-15
  9.8626E-15
  3.6850E-14
  4.9886E-14
  6.2922E-14
  1.8425E-14
  3.4155E-14
  4.9885E-14
  0.0000E+00
  1.8424E-14
  3.6848E-14
  1.9676E-13
  2.3736E-13
  2.7795E-13
  9.8380E-14
  1.6787E-13
  2.3736E-13
  0.0000E+00
  9.8384E-14
  1.9677E-13
  8.6125E-13
  9.9313E-13
  1.1250E-12
  4.3062E-13
  7.1188E-13
  9.9314E-13
  0.0000E+00
  4.3063E-13
  8.6126E-13
  9.8828E-09
  9.8827E-09
  9.8826E-09
  9.8827E-09
  9.8827E-09
  9.8827E-09
  9.8826E-09
  9.8827E-09
  9.8828E-09
  3.9528E-08
  3.9527E-08
  3.9526E-08
  3.9529E-08
  3.9528E-08
  3.9527E-08
  3.9530E-08
  3.9529E-08
  3.9528E-08
  1.4823E-07
  1.4823E-07
  1.4823E-07
  1.4824E-07
  1.4823E-07
  1.4823E-07
  1.4824E-07
  1.4824E-07
  1.4823E-07
  5.7317E-07
  5.7316E-07
  5.7315E-07
  5.7318E-07
  5.7317E-07
  5.7316E-07
  5.7319E-07
  5.7318E-07
  5.7317E-07
  2.1148E-06
  2.1148E-06
  2.1147E-06
  2.1148E-06
  2.1148E-06
  2.1148E-06
  2.1148E-06
  2.1148E-06
  2.1148E-06
  7.8265E-06
  7.8265E-06
  7.8265E-06
  7.8266E-06
  7.8265E-06
  7.8265E-06
  7.8266E-06
  7.8266E-06
  7.8265E-06
  2.9186E-05
  2.9186E-05
  2.9186E-05
  2.9186E-05
  2.9186E-05
  2.9186E-05
  2.9186E-05
  2.9186E-05
  2.9186E-05
  1.0896E-04
  1.0896E-04
  1.0896E-04
  1.0896E-04
  1.0896E-04
  1.0896E-04
  1.0896E-04
  1.0896E-04
  1.0896E-04
  4.0672E-04
  4.0672E-04
  4.0672E-04
  4.0672E-04
  4.0672E-04
  4.0672E-04
  4.0672E-04
  4.0672E-04
  4.0672E-04
  1.5181E-03
  1.5181E-03
  1.5181E-03
  1.5181E-03
  1.5181E-03
  1.5181E-03
  1.5181E-03
  1.5181E-03
  1.5181E-03
  5.6661E-03
  5.6661E-03
  5.6661E-03
  5.6661E-03
  5.6661E-03
  5.6661E-03
  5.6661E-03
  5.6661E-03
  5.6661E-03
  2.1148E-02
  2.1148E-02
  2.1148E-02
  2.1148E-02
  2.1148E-02
  2.1148E-02
  2.1148E-02
  2.1148E-02
  2.1148E-02
  7.8931E-02
  7.8931E-02
  7.8931E-02
  7.8931E-02
  7.8931E-02
  7.8931E-02
  7.8931E-02
  7.8931E-02
  7.8931E-02
  1.2450E-01
  1.2450E-01
  1.2450E-01
  1.2450E-01
  1.2450E-01
  1.2450E-01
  1.2450E-01
  1.2450E-01
  1.2450E-01
   8.5000E-03
  2.3429E-16
  3.1114E-16
  3.8800E-16
  1.1715E-16
  2.1122E-16
  3.0529E-16
  0.0000E+00
  1.1130E-16
  2.2259E-16
  6.9170E-16
  9.3164E-16
  1.1716E-15
  3.4585E-16
  6.3680E-16
  9.2774E-16
  0.0000E+00
  3.4195E-16
  6.8391E-16
  2.7602E-15
  3.7344E-15
  4.7085E-15
  1.3801E-15
  2.5554E-15
  3.7307E-15
  0.0000E+00
  1.3765E-15
  2.7530E-15
  1.0349E-14
  1.4011E-14
  1.7674E-14
  5.1744E-15
  9.5908E-15
  1.4007E-14
  0.0000E+00
  5.1704E-15
  1.0341E-14
  3.8635E-14
  5.2303E-14
  6.5971E-14
  1.9318E-14
  3.5810E-14
  5.2302E-14
  0.0000E+00
  1.9317E-14
  3.8634E-14
  2.0286E-13
  2.4570E-13
  2.8853E-13
  1.0143E-13
  1.7357E-13
  2.4570E-13
  0.0000E+00
  1.0143E-13
  2.0287E-13
  8.8303E-13
  1.0231E-12
  1.1631E-12
  4.4152E-13
  7.3230E-13
  1.0231E-12
  0.0000E+00
  4.4153E-13
  8.8305E-13
  1.0120E-08
  1.0119E-08
  1.0119E-08
  1.0119E-08
  1.0119E-08
  1.0119E-08
  1.0119E-08
  1.0119E-08
  1.0120E-08
  4.0475E-08
  4.0474E-08
  4.0473E-08
  4.0476E-08
  4.0475E-08
  4.0474E-08
  4.0477E-08
  4.0476E-08
  4.0475E-08
  1.5178E-07
  1.5178E-07
  1.5178E-07
  1.5179E-07
  1.5178E-07
  1.5178E-07
  1.5179E-07
  1.5179E-07
  1.5178E-07
  5.8689E-07
  5.8688E-07
  5.8687E-07
  5.8691E-07
  5.8689E-07
  5.8688E-07
  5.8692E-07
  5.8691E-07
  5.8689E-07
  2.1654E-06
  2.1654E-06
  2.1654E-06
  2.1655E-06
  2.1654E-06
  2.1654E-06
  2.1655E-06
  2.1655E-06
  2.1654E-06
  8.0139E-06
  8.0139E-06
  8.0139E-06
  8.0140E-06
  8.0139E-06
  8.0139E-06
  8.0140E-06
  8.0140E-06
  8.0139E-06
  2.9885E-05
  2.9885E-05
  2.9885E-05
  2.9885E-05
  2.9885E-05
  2.9885E-05
  2.9885E-05
  2.9885E-05
  2.9885E-05
  1.1157E-04
  1.1157E-04
  1.1157E-04
  1.1157E-04
  1.1157E-04
  1.1157E-04
  1.1157E-04
  1.1157E-04
  1.1157E-04
  4.1646E-04
  4.1646E-04
  4.1646E-04
  4.1646E-04
  4.1646E-04
  4.1646E-04
  4.1646E-04
  4.1646E-04
  4.1646E-04
  1.5544E-03
  1.5544E-03
  1.5544E-03
  1.5544E-03
  1.5544E-03
  1.5544E-03
  1.5544E-03
  1.5544E-03
  1.5544E-03
  5.8017E-03
  5.8017E-03
  5.8017E-03
  5.8017E-03
  5.8017E-03
  5.8017E-03
  5.8017E-03
  5.8017E-03
  5.8017E-03
  2.1655E-02
  2.1655E-02
  2.1655E-02
  2.1655E-02
  2.1655E-02
  2.1655E-02
  2.1655E-02
  2.1655E-02
  2.1655E-02
  8.0821E-02
  8.0821E-02
  8.0821E-02
  8.0821E-02
  8.0821E-02
  8.0821E-02
  8.0821E-02
  8.0821E-02
  8.0821E-02
  1.2748E-01
  1.2748E-01
  1.2748E-01
  1.2748E-01
  1.2748E-01
  1.2748E-01
  1.2748E-01
  1.2748E-01
  1.2748E-01
   8.6000E-03
  2.4541E-16
  3.2604E-16
  4.0668E-16
  1.2270E-16
  2.2138E-16
  3.2005E-16
  0.0000E+00
  1.1671E-16
  2.3342E-16
  7.2478E-16
  9.7630E-16
  1.2278E-15
  3.6239E-16
  6.6735E-16
  9.7231E-16
  0.0000E+00
  3.5840E-16
  7.1679E-16
  2.8924E-15
  3.9132E-15
  4.9340E-15
  1.4462E-15
  2.6779E-15
  3.9095E-15
  0.0000E+00
  1.4425E-15
  2.8850E-15
  1.0844E-14
  1.4682E-14
  1.8520E-14
  5.4221E-15
  1.0050E-14
  1.4678E-14
  0.0000E+00
  5.4181E-15
  1.0836E-14
  4.0486E-14
  5.4808E-14
  6.9130E-14
  2.0243E-14
  3.7525E-14
  5.4807E-14
  0.0000E+00
  2.0242E-14
  4.0484E-14
  2.0922E-13
  2.5439E-13
  2.9955E-13
  1.0461E-13
  1.7950E-13
  2.5439E-13
  0.0000E+00
  1.0461E-13
  2.0923E-13
  9.7855E-13
  1.1219E-12
  1.2653E-12
  4.8928E-13
  8.0561E-13
  1.1219E-12
  0.0000E+00
  4.8928E-13
  9.7857E-13
  1.0359E-08
  1.0359E-08
  1.0359E-08
  1.0359E-08
  1.0359E-08
  1.0359E-08
  1.0359E-08
  1.0359E-08
  1.0359E-08
  4.1433E-08
  4.1432E-08
  4.1431E-08
  4.1434E-08
  4.1433E-08
  4.1432E-08
  4.1435E-08
  4.1434E-08
  4.1433E-08
  1.5537E-07
  1.5537E-07
  1.5537E-07
  1.5538E-07
  1.5537E-07
  1.5537E-07
  1.5538E-07
  1.5538E-07
  1.5537E-07
  6.0078E-07
  6.0077E-07
  6.0076E-07
  6.0080E-07
  6.0078E-07
  6.0077E-07
  6.0081E-07
  6.0080E-07
  6.0078E-07
  2.2167E-06
  2.2166E-06
  2.2166E-06
  2.2167E-06
  2.2167E-06
  2.2166E-06
  2.2167E-06
  2.2167E-06
  2.2167E-06
  8.2036E-06
  8.2035E-06
  8.2035E-06
  8.2036E-06
  8.2036E-06
  8.2035E-06
  8.2036E-06
  8.2036E-06
  8.2036E-06
  3.0592E-05
  3.0592E-05
  3.0592E-05
  3.0592E-05
  3.0592E-05
  3.0592E-05
  3.0592E-05
  3.0592E-05
  3.0592E-05
  1.1421E-04
  1.1421E-04
  1.1421E-04
  1.1421E-04
  1.1421E-04
  1.1421E-04
  1.1421E-04
  1.1421E-04
  1.1421E-04
  4.2631E-04
  4.2631E-04
  4.2631E-04
  4.2631E-04
  4.2631E-04
  4.2631E-04
  4.2631E-04
  4.2631E-04
  4.2631E-04
  1.5912E-03
  1.5912E-03
  1.5912E-03
  1.5912E-03
  1.5912E-03
  1.5912E-03
  1.5912E-03
  1.5912E-03
  1.5912E-03
  5.9390E-03
  5.9390E-03
  5.9390E-03
  5.9390E-03
  5.9390E-03
  5.9390E-03
  5.9390E-03
  5.9390E-03
  5.9390E-03
  2.2167E-02
  2.2167E-02
  2.2167E-02
  2.2167E-02
  2.2167E-02
  2.2167E-02
  2.2167E-02
  2.2167E-02
  2.2167E-02
  8.2734E-02
  8.2734E-02
  8.2734E-02
  8.2734E-02
  8.2734E-02
  8.2734E-02
  8.2734E-02
  8.2734E-02
  8.2734E-02
  1.3050E-01
  1.3050E-01
  1.3050E-01
  1.3050E-01
  1.3050E-01
  1.3050E-01
  1.3050E-01
  1.3050E-01
  1.3050E-01
   8.7000E-03
  2.5691E-16
  3.4147E-16
  4.2602E-16
  1.2846E-16
  2.3189E-16
  3.3533E-16
  0.0000E+00
  1.2232E-16
  2.4463E-16
  7.5903E-16
  1.0225E-15
  1.2861E-15
  3.7951E-16
  6.9899E-16
  1.0185E-15
  0.0000E+00
  3.7543E-16
  7.5085E-16
  3.0292E-15
  4.0984E-15
  5.1676E-15
  1.5146E-15
  2.8046E-15
  4.0946E-15
  0.0000E+00
  1.5108E-15
  3.0217E-15
  1.1357E-14
  1.5377E-14
  1.9396E-14
  5.6787E-15
  1.0526E-14
  1.5373E-14
  0.0000E+00
  5.6746E-15
  1.1349E-14
  4.2401E-14
  5.7401E-14
  7.2400E-14
  2.1201E-14
  3.9300E-14
  5.7400E-14
  0.0000E+00
  2.1200E-14
  4.2400E-14
  2.5208E-13
  2.9707E-13
  3.4205E-13
  1.2604E-13
  2.1156E-13
  2.9707E-13
  0.0000E+00
  1.2604E-13
  2.5209E-13
  1.0647E-12
  1.2096E-12
  1.3544E-12
  5.3235E-13
  8.7096E-13
  1.2096E-12
  0.0000E+00
  5.3236E-13
  1.0647E-12
  1.0601E-08
  1.0601E-08
  1.0601E-08
  1.0601E-08
  1.0601E-08
  1.0601E-08
  1.0601E-08
  1.0601E-08
  1.0601E-08
  4.2402E-08
  4.2401E-08
  4.2400E-08
  4.2403E-08
  4.2402E-08
  4.2401E-08
  4.2404E-08
  4.2403E-08
  4.2402E-08
  1.5901E-07
  1.5900E-07
  1.5900E-07
  1.5901E-07
  1.5901E-07
  1.5900E-07
  1.5902E-07
  1.5901E-07
  1.5901E-07
  6.1484E-07
  6.1482E-07
  6.1481E-07
  6.1485E-07
  6.1484E-07
  6.1482E-07
  6.1486E-07
  6.1485E-07
  6.1484E-07
  2.2685E-06
  2.2685E-06
  2.2685E-06
  2.2685E-06
  2.2685E-06
  2.2685E-06
  2.2686E-06
  2.2685E-06
  2.2685E-06
  8.3954E-06
  8.3954E-06
  8.3953E-06
  8.3954E-06
  8.3954E-06
  8.3954E-06
  8.3955E-06
  8.3954E-06
  8.3954E-06
  3.1307E-05
  3.1307E-05
  3.1307E-05
  3.1307E-05
  3.1307E-05
  3.1307E-05
  3.1307E-05
  3.1307E-05
  3.1307E-05
  1.1688E-04
  1.1688E-04
  1.1688E-04
  1.1688E-04
  1.1688E-04
  1.1688E-04
  1.1688E-04
  1.1688E-04
  1.1688E-04
  4.3628E-04
  4.3628E-04
  4.3628E-04
  4.3628E-04
  4.3628E-04
  4.3628E-04
  4.3628E-04
  4.3628E-04
  4.3628E-04
  1.6284E-03
  1.6284E-03
  1.6284E-03
  1.6284E-03
  1.6284E-03
  1.6284E-03
  1.6284E-03
  1.6284E-03
  1.6284E-03
  6.0779E-03
  6.0779E-03
  6.0779E-03
  6.0779E-03
  6.0779E-03
  6.0779E-03
  6.0779E-03
  6.0779E-03
  6.0779E-03
  2.2686E-02
  2.2686E-02
  2.2686E-02
  2.2686E-02
  2.2686E-02
  2.2686E-02
  2.2686E-02
  2.2686E-02
  2.2686E-02
  8.4669E-02
  8.4669E-02
  8.4669E-02
  8.4669E-02
  8.4669E-02
  8.4669E-02
  8.4669E-02
  8.4669E-02
  8.4669E-02
  1.3355E-01
  1.3355E-01
  1.3355E-01
  1.3355E-01
  1.3355E-01
  1.3355E-01
  1.3355E-01
  1.3355E-01
  1.3355E-01
   8.8000E-03
  2.6882E-16
  3.5743E-16
  4.4605E-16
  1.3441E-16
  2.4278E-16
  3.5115E-16
  0.0000E+00
  1.2812E-16
  2.5624E-16
  7.9448E-16
  1.0704E-15
  1.3464E-15
  3.9724E-16
  7.3174E-16
  1.0662E-15
  0.0000E+00
  3.9305E-16
  7.8611E-16
  3.1709E-15
  4.2901E-15
  5.4093E-15
  1.5854E-15
  2.9358E-15
  4.2862E-15
  0.0000E+00
  1.5816E-15
  3.1632E-15
  1.1889E-14
  1.6096E-14
  2.0303E-14
  5.9443E-15
  1.1018E-14
  1.6092E-14
  0.0000E+00
  5.9401E-15
  1.1880E-14
  4.4384E-14
  6.0085E-14
  7.5786E-14
  2.2192E-14
  4.1138E-14
  6.0084E-14
  0.0000E+00
  2.2191E-14
  4.4383E-14
  2.5860E-13
  3.0600E-13
  3.5341E-13
  1.2930E-13
  2.1765E-13
  3.0601E-13
  0.0000E+00
  1.2930E-13
  2.5861E-13
  1.0882E-12
  1.2419E-12
  1.3956E-12
  5.4409E-13
  8.9301E-13
  1.2419E-12
  0.0000E+00
  5.4410E-13
  1.0882E-12
  1.0847E-08
  1.0846E-08
  1.0846E-08
  1.0846E-08
  1.0846E-08
  1.0846E-08
  1.0846E-08
  1.0846E-08
  1.0847E-08
  4.3382E-08
  4.3381E-08
  4.3380E-08
  4.3383E-08
  4.3382E-08
  4.3381E-08
  4.3385E-08
  4.3383E-08
  4.3382E-08
  1.6268E-07
  1.6268E-07
  1.6268E-07
  1.6269E-07
  1.6268E-07
  1.6268E-07
  1.6269E-07
  1.6269E-07
  1.6268E-07
  6.2905E-07
  6.2904E-07
  6.2903E-07
  6.2906E-07
  6.2905E-07
  6.2904E-07
  6.2908E-07
  6.2906E-07
  6.2905E-07
  2.3210E-06
  2.3209E-06
  2.3209E-06
  2.3210E-06
  2.3210E-06
  2.3209E-06
  2.3210E-06
  2.3210E-06
  2.3210E-06
  8.5895E-06
  8.5894E-06
  8.5894E-06
  8.5895E-06
  8.5895E-06
  8.5894E-06
  8.5895E-06
  8.5895E-06
  8.5895E-06
  3.2031E-05
  3.2031E-05
  3.2031E-05
  3.2031E-05
  3.2031E-05
  3.2031E-05
  3.2031E-05
  3.2031E-05
  3.2031E-05
  1.1958E-04
  1.1958E-04
  1.1958E-04
  1.1958E-04
  1.1958E-04
  1.1958E-04
  1.1958E-04
  1.1958E-04
  1.1958E-04
  4.4636E-04
  4.4636E-04
  4.4636E-04
  4.4636E-04
  4.4636E-04
  4.4636E-04
  4.4636E-04
  4.4636E-04
  4.4636E-04
  1.6660E-03
  1.6660E-03
  1.6660E-03
  1.6660E-03
  1.6660E-03
  1.6660E-03
  1.6660E-03
  1.6660E-03
  1.6660E-03
  6.2184E-03
  6.2184E-03
  6.2184E-03
  6.2184E-03
  6.2184E-03
  6.2184E-03
  6.2184E-03
  6.2184E-03
  6.2184E-03
  2.3210E-02
  2.3210E-02
  2.3210E-02
  2.3210E-02
  2.3210E-02
  2.3210E-02
  2.3210E-02
  2.3210E-02
  2.3210E-02
  8.6626E-02
  8.6626E-02
  8.6626E-02
  8.6626E-02
  8.6626E-02
  8.6626E-02
  8.6626E-02
  8.6626E-02
  8.6626E-02
  1.3664E-01
  1.3664E-01
  1.3664E-01
  1.3664E-01
  1.3664E-01
  1.3664E-01
  1.3664E-01
  1.3664E-01
  1.3664E-01
   8.9000E-03
  2.8114E-16
  3.7396E-16
  4.6677E-16
  1.4057E-16
  2.5404E-16
  3.6752E-16
  0.0000E+00
  1.3413E-16
  2.6826E-16
  8.3116E-16
  1.1200E-15
  1.4087E-15
  4.1558E-16
  7.6562E-16
  1.1157E-15
  0.0000E+00
  4.1130E-16
  8.2259E-16
  3.3175E-15
  4.4884E-15
  5.6594E-15
  1.6587E-15
  3.0716E-15
  4.4845E-15
  0.0000E+00
  1.6548E-15
  3.3095E-15
  1.2438E-14
  1.6840E-14
  2.1241E-14
  6.2191E-15
  1.1527E-14
  1.6835E-14
  0.0000E+00
  6.2148E-15
  1.2430E-14
  4.6436E-14
  6.2862E-14
  7.9289E-14
  2.3218E-14
  4.3040E-14
  6.2861E-14
  0.0000E+00
  2.3217E-14
  4.6434E-14
  2.6539E-13
  3.1531E-13
  3.6523E-13
  1.3270E-13
  2.2401E-13
  3.1532E-13
  0.0000E+00
  1.3270E-13
  2.6540E-13
  1.1127E-12
  1.2757E-12
  1.4387E-12
  5.5636E-13
  9.1604E-13
  1.2757E-12
  0.0000E+00
  5.5637E-13
  1.1127E-12
  1.1094E-08
  1.1094E-08
  1.1094E-08
  1.1094E-08
  1.1094E-08
  1.1094E-08
  1.1094E-08
  1.1094E-08
  1.1094E-08
  4.4374E-08
  4.4373E-08
  4.4371E-08
  4.4375E-08
  4.4374E-08
  4.4373E-08
  4.4376E-08
  4.4375E-08
  4.4374E-08
  1.6640E-07
  1.6640E-07
  1.6639E-07
  1.6641E-07
  1.6640E-07
  1.6640E-07
  1.6641E-07
  1.6641E-07
  1.6640E-07
  6.4343E-07
  6.4342E-07
  6.4340E-07
  6.4344E-07
  6.4343E-07
  6.4342E-07
  6.4346E-07
  6.4344E-07
  6.4343E-07
  2.3740E-06
  2.3740E-06
  2.3740E-06
  2.3740E-06
  2.3740E-06
  2.3740E-06
  2.3741E-06
  2.3740E-06
  2.3740E-06
  8.7857E-06
  8.7857E-06
  8.7857E-06
  8.7858E-06
  8.7857E-06
  8.7857E-06
  8.7858E-06
  8.7858E-06
  8.7857E-06
  3.2762E-05
  3.2762E-05
  3.2762E-05
  3.2762E-05
  3.2762E-05
  3.2762E-05
  3.2762E-05
  3.2762E-05
  3.2762E-05
  1.2231E-04
  1.2231E-04
  1.2231E-04
  1.2231E-04
  1.2231E-04
  1.2231E-04
  1.2231E-04
  1.2231E-04
  1.2231E-04
  4.5656E-04
  4.5656E-04
  4.5656E-04
  4.5656E-04
  4.5656E-04
  4.5656E-04
  4.5656E-04
  4.5656E-04
  4.5656E-04
  1.7041E-03
  1.7041E-03
  1.7041E-03
  1.7041E-03
  1.7041E-03
  1.7041E-03
  1.7041E-03
  1.7041E-03
  1.7041E-03
  6.3604E-03
  6.3604E-03
  6.3604E-03
  6.3604E-03
  6.3604E-03
  6.3604E-03
  6.3604E-03
  6.3604E-03
  6.3604E-03
  2.3740E-02
  2.3740E-02
  2.3740E-02
  2.3740E-02
  2.3740E-02
  2.3740E-02
  2.3740E-02
  2.3740E-02
  2.3740E-02
  8.8606E-02
  8.8606E-02
  8.8606E-02
  8.8606E-02
  8.8606E-02
  8.8606E-02
  8.8606E-02
  8.8606E-02
  8.8606E-02
  1.3976E-01
  1.3976E-01
  1.3976E-01
  1.3976E-01
  1.3976E-01
  1.3976E-01
  1.3976E-01
  1.3976E-01
  1.3976E-01
   9.0000E-03
  2.9388E-16
  3.9104E-16
  4.8821E-16
  1.4694E-16
  2.6570E-16
  3.8445E-16
  0.0000E+00
  1.4035E-16
  2.8070E-16
  8.6910E-16
  1.1712E-15
  1.4733E-15
  4.3455E-16
  8.0067E-16
  1.1668E-15
  0.0000E+00
  4.3016E-16
  8.6033E-16
  3.4690E-15
  4.6936E-15
  5.9181E-15
  1.7345E-15
  3.2120E-15
  4.6895E-15
  0.0000E+00
  1.7305E-15
  3.4610E-15
  1.3007E-14
  1.7609E-14
  2.2212E-14
  6.5033E-15
  1.2054E-14
  1.7605E-14
  0.0000E+00
  6.4989E-15
  1.2998E-14
  4.8558E-14
  6.5735E-14
  8.2912E-14
  2.4279E-14
  4.5006E-14
  6.5734E-14
  0.0000E+00
  2.4278E-14
  4.8556E-14
  2.7246E-13
  3.2500E-13
  3.7754E-13
  1.3623E-13
  2.3062E-13
  3.2501E-13
  0.0000E+00
  1.3624E-13
  2.7247E-13
  1.2114E-12
  1.3790E-12
  1.5465E-12
  6.0571E-13
  9.9234E-13
  1.3790E-12
  0.0000E+00
  6.0572E-13
  1.2114E-12
  1.1345E-08
  1.1345E-08
  1.1345E-08
  1.1345E-08
  1.1345E-08
  1.1345E-08
  1.1345E-08
  1.1345E-08
  1.1345E-08
  4.5377E-08
  4.5375E-08
  4.5374E-08
  4.5378E-08
  4.5377E-08
  4.5375E-08
  4.5379E-08
  4.5378E-08
  4.5377E-08
  1.7016E-07
  1.7016E-07
  1.7015E-07
  1.7017E-07
  1.7016E-07
  1.7016E-07
  1.7017E-07
  1.7017E-07
  1.7016E-07
  6.5797E-07
  6.5795E-07
  6.5794E-07
  6.5798E-07
  6.5797E-07
  6.5795E-07
  6.5800E-07
  6.5798E-07
  6.5797E-07
  2.4277E-06
  2.4276E-06
  2.4276E-06
  2.4277E-06
  2.4277E-06
  2.4276E-06
  2.4277E-06
  2.4277E-06
  2.4277E-06
  8.9842E-06
  8.9842E-06
  8.9841E-06
  8.9842E-06
  8.9842E-06
  8.9842E-06
  8.9843E-06
  8.9842E-06
  8.9842E-06
  3.3502E-05
  3.3502E-05
  3.3502E-05
  3.3502E-05
  3.3502E-05
  3.3502E-05
  3.3502E-05
  3.3502E-05
  3.3502E-05
  1.2507E-04
  1.2507E-04
  1.2507E-04
  1.2507E-04
  1.2507E-04
  1.2507E-04
  1.2507E-04
  1.2507E-04
  1.2507E-04
  4.6687E-04
  4.6687E-04
  4.6687E-04
  4.6687E-04
  4.6687E-04
  4.6687E-04
  4.6687E-04
  4.6687E-04
  4.6687E-04
  1.7426E-03
  1.7426E-03
  1.7426E-03
  1.7426E-03
  1.7426E-03
  1.7426E-03
  1.7426E-03
  1.7426E-03
  1.7426E-03
  6.5041E-03
  6.5041E-03
  6.5041E-03
  6.5041E-03
  6.5041E-03
  6.5041E-03
  6.5041E-03
  6.5041E-03
  6.5041E-03
  2.4277E-02
  2.4277E-02
  2.4277E-02
  2.4277E-02
  2.4277E-02
  2.4277E-02
  2.4277E-02
  2.4277E-02
  2.4277E-02
  9.0608E-02
  9.0608E-02
  9.0608E-02
  9.0608E-02
  9.0608E-02
  9.0608E-02
  9.0608E-02
  9.0608E-02
  9.0608E-02
  1.4292E-01
  1.4292E-01
  1.4292E-01
  1.4292E-01
  1.4292E-01
  1.4292E-01
  1.4292E-01
  1.4292E-01
  1.4292E-01
   9.1000E-03
  3.0704E-16
  4.0871E-16
  5.1038E-16
  1.5352E-16
  2.7775E-16
  4.0197E-16
  0.0000E+00
  1.4678E-16
  2.9356E-16
  9.0832E-16
  1.2242E-15
  1.5400E-15
  4.5416E-16
  8.3691E-16
  1.2197E-15
  0.0000E+00
  4.4967E-16
  8.9935E-16
  3.6258E-15
  4.9056E-15
  6.1855E-15
  1.8129E-15
  3.3572E-15
  4.9015E-15
  0.0000E+00
  1.8087E-15
  3.6175E-15
  1.3594E-14
  1.8405E-14
  2.3215E-14
  6.7971E-15
  1.2599E-14
  1.8400E-14
  0.0000E+00
  6.7926E-15
  1.3585E-14
  5.0752E-14
  6.8705E-14
  8.6657E-14
  2.5376E-14
  4.7040E-14
  6.8704E-14
  0.0000E+00
  2.5375E-14
  5.0750E-14
  2.7983E-13
  3.3508E-13
  3.9034E-13
  1.3991E-13
  2.3750E-13
  3.3508E-13
  0.0000E+00
  1.3992E-13
  2.7983E-13
  1.2374E-12
  1.4148E-12
  1.5922E-12
  6.1872E-13
  1.0168E-12
  1.4148E-12
  0.0000E+00
  6.1873E-13
  1.2375E-12
  1.1599E-08
  1.1599E-08
  1.1598E-08
  1.1598E-08
  1.1599E-08
  1.1599E-08
  1.1598E-08
  1.1598E-08
  1.1599E-08
  4.6390E-08
  4.6389E-08
  4.6388E-08
  4.6392E-08
  4.6390E-08
  4.6389E-08
  4.6393E-08
  4.6392E-08
  4.6390E-08
  1.7397E-07
  1.7396E-07
  1.7396E-07
  1.7397E-07
  1.7397E-07
  1.7396E-07
  1.7397E-07
  1.7397E-07
  1.7397E-07
  6.7267E-07
  6.7266E-07
  6.7264E-07
  6.7269E-07
  6.7267E-07
  6.7266E-07
  6.7270E-07
  6.7269E-07
  6.7267E-07
  2.4819E-06
  2.4819E-06
  2.4818E-06
  2.4819E-06
  2.4819E-06
  2.4819E-06
  2.4819E-06
  2.4819E-06
  2.4819E-06
  9.1849E-06
  9.1848E-06
  9.1848E-06
  9.1849E-06
  9.1849E-06
  9.1848E-06
  9.1850E-06
  9.1849E-06
  9.1849E-06
  3.4251E-05
  3.4251E-05
  3.4251E-05
  3.4251E-05
  3.4251E-05
  3.4251E-05
  3.4251E-05
  3.4251E-05
  3.4251E-05
  1.2787E-04
  1.2787E-04
  1.2787E-04
  1.2787E-04
  1.2787E-04
  1.2787E-04
  1.2787E-04
  1.2787E-04
  1.2787E-04
  4.7730E-04
  4.7730E-04
  4.7730E-04
  4.7730E-04
  4.7730E-04
  4.7730E-04
  4.7730E-04
  4.7730E-04
  4.7730E-04
  1.7815E-03
  1.7815E-03
  1.7815E-03
  1.7815E-03
  1.7815E-03
  1.7815E-03
  1.7815E-03
  1.7815E-03
  1.7815E-03
  6.6494E-03
  6.6494E-03
  6.6494E-03
  6.6494E-03
  6.6494E-03
  6.6494E-03
  6.6494E-03
  6.6494E-03
  6.6494E-03
  2.4819E-02
  2.4819E-02
  2.4819E-02
  2.4819E-02
  2.4819E-02
  2.4819E-02
  2.4819E-02
  2.4819E-02
  2.4819E-02
  9.2632E-02
  9.2632E-02
  9.2632E-02
  9.2632E-02
  9.2632E-02
  9.2632E-02
  9.2632E-02
  9.2632E-02
  9.2632E-02
  1.4612E-01
  1.4612E-01
  1.4612E-01
  1.4612E-01
  1.4612E-01
  1.4612E-01
  1.4612E-01
  1.4612E-01
  1.4612E-01
   9.2000E-03
  3.2065E-16
  4.2697E-16
  5.3329E-16
  1.6032E-16
  2.9020E-16
  4.2007E-16
  0.0000E+00
  1.5343E-16
  3.0686E-16
  9.4885E-16
  1.2789E-15
  1.6089E-15
  4.7443E-16
  8.7437E-16
  1.2743E-15
  0.0000E+00
  4.6984E-16
  9.3968E-16
  3.7877E-15
  5.1248E-15
  6.4619E-15
  1.8939E-15
  3.5072E-15
  5.1206E-15
  0.0000E+00
  1.8896E-15
  3.7793E-15
  1.4202E-14
  1.9227E-14
  2.4252E-14
  7.1008E-15
  1.3161E-14
  1.9222E-14
  0.0000E+00
  7.0962E-15
  1.4192E-14
  5.3019E-14
  7.1774E-14
  9.0528E-14
  2.6510E-14
  4.9141E-14
  7.1773E-14
  0.0000E+00
  2.6509E-14
  5.3018E-14
  2.8748E-13
  3.4556E-13
  4.0363E-13
  1.4374E-13
  2.4465E-13
  3.4556E-13
  0.0000E+00
  1.4375E-13
  2.8749E-13
  1.2646E-12
  1.4522E-12
  1.6398E-12
  6.3231E-13
  1.0423E-12
  1.4522E-12
  0.0000E+00
  6.3232E-13
  1.2646E-12
  1.1855E-08
  1.1855E-08
  1.1855E-08
  1.1855E-08
  1.1855E-08
  1.1855E-08
  1.1855E-08
  1.1855E-08
  1.1855E-08
  4.7416E-08
  4.7414E-08
  4.7413E-08
  4.7417E-08
  4.7416E-08
  4.7414E-08
  4.7418E-08
  4.7417E-08
  4.7416E-08
  1.7781E-07
  1.7780E-07
  1.7780E-07
  1.7781E-07
  1.7781E-07
  1.7780E-07
  1.7782E-07
  1.7781E-07
  1.7781E-07
  6.8754E-07
  6.8752E-07
  6.8750E-07
  6.8755E-07
  6.8754E-07
  6.8752E-07
  6.8757E-07
  6.8755E-07
  6.8754E-07
  2.5367E-06
  2.5367E-06
  2.5367E-06
  2.5368E-06
  2.5367E-06
  2.5367E-06
  2.5368E-06
  2.5368E-06
  2.5367E-06
  9.3878E-06
  9.3877E-06
  9.3877E-06
  9.3878E-06
  9.3878E-06
  9.3877E-06
  9.3879E-06
  9.3878E-06
  9.3878E-06
  3.5007E-05
  3.5007E-05
  3.5007E-05
  3.5007E-05
  3.5007E-05
  3.5007E-05
  3.5007E-05
  3.5007E-05
  3.5007E-05
  1.3069E-04
  1.3069E-04
  1.3069E-04
  1.3069E-04
  1.3069E-04
  1.3069E-04
  1.3069E-04
  1.3069E-04
  1.3069E-04
  4.8784E-04
  4.8784E-04
  4.8784E-04
  4.8784E-04
  4.8784E-04
  4.8784E-04
  4.8784E-04
  4.8784E-04
  4.8784E-04
  1.8209E-03
  1.8209E-03
  1.8209E-03
  1.8209E-03
  1.8209E-03
  1.8209E-03
  1.8209E-03
  1.8209E-03
  1.8209E-03
  6.7963E-03
  6.7963E-03
  6.7963E-03
  6.7963E-03
  6.7963E-03
  6.7963E-03
  6.7963E-03
  6.7963E-03
  6.7963E-03
  2.5367E-02
  2.5367E-02
  2.5367E-02
  2.5367E-02
  2.5367E-02
  2.5367E-02
  2.5367E-02
  2.5367E-02
  2.5367E-02
  9.4679E-02
  9.4679E-02
  9.4679E-02
  9.4679E-02
  9.4679E-02
  9.4679E-02
  9.4679E-02
  9.4679E-02
  9.4679E-02
  1.4934E-01
  1.4934E-01
  1.4934E-01
  1.4934E-01
  1.4934E-01
  1.4934E-01
  1.4934E-01
  1.4934E-01
  1.4934E-01
   9.3000E-03
  3.3470E-16
  4.4583E-16
  5.5696E-16
  1.6735E-16
  3.0307E-16
  4.3878E-16
  0.0000E+00
  1.6030E-16
  3.2060E-16
  9.9073E-16
  1.3355E-15
  1.6802E-15
  4.9536E-16
  9.1307E-16
  1.3308E-15
  0.0000E+00
  4.9067E-16
  9.8135E-16
  3.9551E-15
  5.3513E-15
  6.7475E-15
  1.9775E-15
  3.6623E-15
  5.3470E-15
  0.0000E+00
  1.9732E-15
  3.9464E-15
  1.4829E-14
  2.0076E-14
  2.5323E-14
  7.4145E-15
  1.3743E-14
  2.0071E-14
  0.0000E+00
  7.4098E-15
  1.4820E-14
  5.5362E-14
  7.4945E-14
  9.4528E-14
  2.7681E-14
  5.1313E-14
  7.4944E-14
  0.0000E+00
  2.7680E-14
  5.5360E-14
  2.9544E-13
  3.5644E-13
  4.1744E-13
  1.4772E-13
  2.5208E-13
  3.5644E-13
  0.0000E+00
  1.4772E-13
  2.9545E-13
  1.2929E-12
  1.4912E-12
  1.6894E-12
  6.4647E-13
  1.0688E-12
  1.4912E-12
  0.0000E+00
  6.4648E-13
  1.2930E-12
  1.2114E-08
  1.2114E-08
  1.2114E-08
  1.2114E-08
  1.2114E-08
  1.2114E-08
  1.2114E-08
  1.2114E-08
  1.2114E-08
  4.8452E-08
  4.8450E-08
  4.8449E-08
  4.8453E-08
  4.8452E-08
  4.8450E-08
  4.8455E-08
  4.8453E-08
  4.8452E-08
  1.8170E-07
  1.8169E-07
  1.8169E-07
  1.8170E-07
  1.8170E-07
  1.8169E-07
  1.8171E-07
  1.8170E-07
  1.8170E-07
  7.0256E-07
  7.0255E-07
  7.0253E-07
  7.0258E-07
  7.0256E-07
  7.0255E-07
  7.0259E-07
  7.0258E-07
  7.0256E-07
  2.5922E-06
  2.5921E-06
  2.5921E-06
  2.5922E-06
  2.5922E-06
  2.5921E-06
  2.5922E-06
  2.5922E-06
  2.5922E-06
  9.5929E-06
  9.5929E-06
  9.5928E-06
  9.5929E-06
  9.5929E-06
  9.5929E-06
  9.5930E-06
  9.5929E-06
  9.5929E-06
  3.5772E-05
  3.5772E-05
  3.5772E-05
  3.5772E-05
  3.5772E-05
  3.5772E-05
  3.5772E-05
  3.5772E-05
  3.5772E-05
  1.3355E-04
  1.3355E-04
  1.3355E-04
  1.3355E-04
  1.3355E-04
  1.3355E-04
  1.3355E-04
  1.3355E-04
  1.3355E-04
  4.9850E-04
  4.9850E-04
  4.9850E-04
  4.9850E-04
  4.9850E-04
  4.9850E-04
  4.9850E-04
  4.9850E-04
  4.9850E-04
  1.8606E-03
  1.8606E-03
  1.8606E-03
  1.8606E-03
  1.8606E-03
  1.8606E-03
  1.8606E-03
  1.8606E-03
  1.8606E-03
  6.9448E-03
  6.9448E-03
  6.9448E-03
  6.9448E-03
  6.9448E-03
  6.9448E-03
  6.9448E-03
  6.9448E-03
  6.9448E-03
  2.5922E-02
  2.5922E-02
  2.5922E-02
  2.5922E-02
  2.5922E-02
  2.5922E-02
  2.5922E-02
  2.5922E-02
  2.5922E-02
  9.6748E-02
  9.6748E-02
  9.6748E-02
  9.6748E-02
  9.6748E-02
  9.6748E-02
  9.6748E-02
  9.6748E-02
  9.6748E-02
  1.5261E-01
  1.5261E-01
  1.5261E-01
  1.5261E-01
  1.5261E-01
  1.5261E-01
  1.5261E-01
  1.5261E-01
  1.5261E-01
   9.4000E-03
  3.4921E-16
  4.6531E-16
  5.8141E-16
  1.7461E-16
  3.1636E-16
  4.5811E-16
  0.0000E+00
  1.6740E-16
  3.3480E-16
  1.0340E-15
  1.3939E-15
  1.7538E-15
  5.1699E-16
  9.5303E-16
  1.3891E-15
  0.0000E+00
  5.1219E-16
  1.0244E-15
  4.1279E-15
  5.5852E-15
  7.0424E-15
  2.0640E-15
  3.8224E-15
  5.5808E-15
  0.0000E+00
  2.0595E-15
  4.1191E-15
  1.5477E-14
  2.0953E-14
  2.6430E-14
  7.7385E-15
  1.4344E-14
  2.0949E-14
  0.0000E+00
  7.7337E-15
  1.5467E-14
  5.7781E-14
  7.8220E-14
  9.8658E-14
  2.8891E-14
  5.3555E-14
  7.8219E-14
  0.0000E+00
  2.8890E-14
  5.7779E-14
  3.4020E-13
  4.0169E-13
  4.6319E-13
  1.7010E-13
  2.8590E-13
  4.0170E-13
  0.0000E+00
  1.7010E-13
  3.4021E-13
  1.4589E-12
  1.6560E-12
  1.8531E-12
  7.2946E-13
  1.1927E-12
  1.6560E-12
  0.0000E+00
  7.2947E-13
  1.4589E-12
  1.2376E-08
  1.2376E-08
  1.2376E-08
  1.2376E-08
  1.2376E-08
  1.2376E-08
  1.2376E-08
  1.2376E-08
  1.2376E-08
  4.9499E-08
  4.9498E-08
  4.9496E-08
  4.9501E-08
  4.9499E-08
  4.9498E-08
  4.9502E-08
  4.9501E-08
  4.9499E-08
  1.8562E-07
  1.8562E-07
  1.8561E-07
  1.8563E-07
  1.8562E-07
  1.8562E-07
  1.8563E-07
  1.8563E-07
  1.8562E-07
  7.1775E-07
  7.1773E-07
  7.1772E-07
  7.1777E-07
  7.1775E-07
  7.1773E-07
  7.1779E-07
  7.1777E-07
  7.1775E-07
  2.6482E-06
  2.6482E-06
  2.6482E-06
  2.6482E-06
  2.6482E-06
  2.6482E-06
  2.6483E-06
  2.6482E-06
  2.6482E-06
  9.8002E-06
  9.8002E-06
  9.8001E-06
  9.8003E-06
  9.8002E-06
  9.8002E-06
  9.8003E-06
  9.8003E-06
  9.8002E-06
  3.6545E-05
  3.6545E-05
  3.6545E-05
  3.6545E-05
  3.6545E-05
  3.6545E-05
  3.6545E-05
  3.6545E-05
  3.6545E-05
  1.3643E-04
  1.3643E-04
  1.3643E-04
  1.3643E-04
  1.3643E-04
  1.3643E-04
  1.3643E-04
  1.3643E-04
  1.3643E-04
  5.0927E-04
  5.0927E-04
  5.0927E-04
  5.0927E-04
  5.0927E-04
  5.0927E-04
  5.0927E-04
  5.0927E-04
  5.0927E-04
  1.9009E-03
  1.9009E-03
  1.9009E-03
  1.9009E-03
  1.9009E-03
  1.9009E-03
  1.9009E-03
  1.9009E-03
  1.9009E-03
  7.0949E-03
  7.0949E-03
  7.0949E-03
  7.0949E-03
  7.0949E-03
  7.0949E-03
  7.0949E-03
  7.0949E-03
  7.0949E-03
  2.6482E-02
  2.6482E-02
  2.6482E-02
  2.6482E-02
  2.6482E-02
  2.6482E-02
  2.6482E-02
  2.6482E-02
  2.6482E-02
  9.8840E-02
  9.8840E-02
  9.8840E-02
  9.8840E-02
  9.8840E-02
  9.8840E-02
  9.8840E-02
  9.8840E-02
  9.8840E-02
  1.5591E-01
  1.5591E-01
  1.5591E-01
  1.5591E-01
  1.5591E-01
  1.5591E-01
  1.5591E-01
  1.5591E-01
  1.5591E-01
   9.5000E-03
  3.6419E-16
  4.8543E-16
  6.0666E-16
  1.8210E-16
  3.3008E-16
  4.7806E-16
  0.0000E+00
  1.7473E-16
  3.4946E-16
  1.0786E-15
  1.4542E-15
  1.8297E-15
  5.3931E-16
  9.9430E-16
  1.4493E-15
  0.0000E+00
  5.3441E-16
  1.0688E-15
  4.3063E-15
  5.8266E-15
  7.3469E-15
  2.1532E-15
  3.9876E-15
  5.8221E-15
  0.0000E+00
  2.1487E-15
  4.2973E-15
  1.6146E-14
  2.1859E-14
  2.7572E-14
  8.0730E-15
  1.4964E-14
  2.1854E-14
  0.0000E+00
  8.0681E-15
  1.6136E-14
  6.0279E-14
  8.1601E-14
  1.0292E-13
  3.0140E-14
  5.5870E-14
  8.1600E-14
  0.0000E+00
  3.0139E-14
  6.0277E-14
  3.4843E-13
  4.1298E-13
  4.7753E-13
  1.7422E-13
  2.9360E-13
  4.1299E-13
  0.0000E+00
  1.7422E-13
  3.4844E-13
  1.4884E-12
  1.6966E-12
  1.9049E-12
  7.4420E-13
  1.2204E-12
  1.6966E-12
  0.0000E+00
  7.4421E-13
  1.4884E-12
  1.2641E-08
  1.2641E-08
  1.2640E-08
  1.2641E-08
  1.2641E-08
  1.2641E-08
  1.2640E-08
  1.2641E-08
  1.2641E-08
  5.0558E-08
  5.0557E-08
  5.0555E-08
  5.0560E-08
  5.0558E-08
  5.0557E-08
  5.0561E-08
  5.0560E-08
  5.0558E-08
  1.8959E-07
  1.8959E-07
  1.8958E-07
  1.8960E-07
  1.8959E-07
  1.8959E-07
  1.8960E-07
  1.8960E-07
  1.8959E-07
  7.3310E-07
  7.3309E-07
  7.3307E-07
  7.3312E-07
  7.3310E-07
  7.3309E-07
  7.3314E-07
  7.3312E-07
  7.3310E-07
  2.7049E-06
  2.7048E-06
  2.7048E-06
  2.7049E-06
  2.7049E-06
  2.7048E-06
  2.7049E-06
  2.7049E-06
  2.7049E-06
  1.0010E-05
  1.0010E-05
  1.0010E-05
  1.0010E-05
  1.0010E-05
  1.0010E-05
  1.0010E-05
  1.0010E-05
  1.0010E-05
  3.7326E-05
  3.7326E-05
  3.7326E-05
  3.7326E-05
  3.7326E-05
  3.7326E-05
  3.7326E-05
  3.7326E-05
  3.7326E-05
  1.3935E-04
  1.3935E-04
  1.3935E-04
  1.3935E-04
  1.3935E-04
  1.3935E-04
  1.3935E-04
  1.3935E-04
  1.3935E-04
  5.2015E-04
  5.2015E-04
  5.2015E-04
  5.2015E-04
  5.2015E-04
  5.2015E-04
  5.2015E-04
  5.2015E-04
  5.2015E-04
  1.9415E-03
  1.9415E-03
  1.9415E-03
  1.9415E-03
  1.9415E-03
  1.9415E-03
  1.9415E-03
  1.9415E-03
  1.9415E-03
  7.2466E-03
  7.2466E-03
  7.2466E-03
  7.2466E-03
  7.2466E-03
  7.2466E-03
  7.2466E-03
  7.2466E-03
  7.2466E-03
  2.7048E-02
  2.7048E-02
  2.7048E-02
  2.7048E-02
  2.7048E-02
  2.7048E-02
  2.7048E-02
  2.7048E-02
  2.7048E-02
  1.0095E-01
  1.0095E-01
  1.0095E-01
  1.0095E-01
  1.0095E-01
  1.0095E-01
  1.0095E-01
  1.0095E-01
  1.0095E-01
  1.5924E-01
  1.5924E-01
  1.5924E-01
  1.5924E-01
  1.5924E-01
  1.5924E-01
  1.5924E-01
  1.5924E-01
  1.5924E-01
   9.6000E-03
  3.7965E-16
  5.0619E-16
  6.3272E-16
  1.8983E-16
  3.4424E-16
  4.9866E-16
  0.0000E+00
  1.8230E-16
  3.6460E-16
  1.1247E-15
  1.5164E-15
  1.9082E-15
  5.6235E-16
  1.0369E-15
  1.5114E-15
  0.0000E+00
  5.5734E-16
  1.1147E-15
  4.4905E-15
  6.0758E-15
  7.6612E-15
  2.2452E-15
  4.1582E-15
  6.0712E-15
  0.0000E+00
  2.2406E-15
  4.4813E-15
  1.6837E-14
  2.2794E-14
  2.8751E-14
  8.4183E-15
  1.5604E-14
  2.2789E-14
  0.0000E+00
  8.4133E-15
  1.6827E-14
  1.3214E-13
  1.4868E-13
  1.6523E-13
  6.6069E-14
  1.0738E-13
  1.4868E-13
  0.0000E+00
  6.6068E-14
  1.3214E-13
  4.7987E-13
  5.3274E-13
  5.8561E-13
  2.3993E-13
  3.8634E-13
  5.3274E-13
  0.0000E+00
  2.3994E-13
  4.7988E-13
  1.5727E-12
  1.7834E-12
  1.9941E-12
  7.8636E-13
  1.2849E-12
  1.7834E-12
  0.0000E+00
  7.8637E-13
  1.5727E-12
  1.2908E-08
  1.2908E-08
  1.2908E-08
  1.2908E-08
  1.2908E-08
  1.2908E-08
  1.2908E-08
  1.2908E-08
  1.2908E-08
  5.1628E-08
  5.1626E-08
  5.1625E-08
  5.1630E-08
  5.1628E-08
  5.1626E-08
  5.1631E-08
  5.1630E-08
  5.1628E-08
  1.9361E-07
  1.9360E-07
  1.9360E-07
  1.9361E-07
  1.9361E-07
  1.9360E-07
  1.9362E-07
  1.9361E-07
  1.9361E-07
  7.4862E-07
  7.4860E-07
  7.4858E-07
  7.4864E-07
  7.4862E-07
  7.4860E-07
  7.4865E-07
  7.4864E-07
  7.4862E-07
  2.7621E-06
  2.7621E-06
  2.7620E-06
  2.7621E-06
  2.7621E-06
  2.7621E-06
  2.7621E-06
  2.7621E-06
  2.7621E-06
  1.0221E-05
  1.0221E-05
  1.0221E-05
  1.0222E-05
  1.0221E-05
  1.0221E-05
  1.0222E-05
  1.0222E-05
  1.0221E-05
  3.8115E-05
  3.8115E-05
  3.8115E-05
  3.8115E-05
  3.8115E-05
  3.8115E-05
  3.8115E-05
  3.8115E-05
  3.8115E-05
  1.4229E-04
  1.4229E-04
  1.4229E-04
  1.4229E-04
  1.4229E-04
  1.4229E-04
  1.4229E-04
  1.4229E-04
  1.4229E-04
  5.3116E-04
  5.3116E-04
  5.3116E-04
  5.3116E-04
  5.3116E-04
  5.3116E-04
  5.3116E-04
  5.3116E-04
  5.3116E-04
  1.9826E-03
  1.9826E-03
  1.9826E-03
  1.9826E-03
  1.9826E-03
  1.9826E-03
  1.9826E-03
  1.9826E-03
  1.9826E-03
  7.3999E-03
  7.3999E-03
  7.3999E-03
  7.3999E-03
  7.3999E-03
  7.3999E-03
  7.3999E-03
  7.3999E-03
  7.3999E-03
  2.7621E-02
  2.7621E-02
  2.7621E-02
  2.7621E-02
  2.7621E-02
  2.7621E-02
  2.7621E-02
  2.7621E-02
  2.7621E-02
  1.0309E-01
  1.0309E-01
  1.0309E-01
  1.0309E-01
  1.0309E-01
  1.0309E-01
  1.0309E-01
  1.0309E-01
  1.0309E-01
  1.6261E-01
  1.6261E-01
  1.6261E-01
  1.6261E-01
  1.6261E-01
  1.6261E-01
  1.6261E-01
  1.6261E-01
  1.6261E-01
   9.7000E-03
  3.9560E-16
  5.2761E-16
  6.5961E-16
  1.9780E-16
  3.5886E-16
  5.1992E-16
  0.0000E+00
  1.9011E-16
  3.8022E-16
  1.1722E-15
  1.5807E-15
  1.9891E-15
  5.8612E-16
  1.0808E-15
  1.5755E-15
  0.0000E+00
  5.8101E-16
  1.1620E-15
  4.6805E-15
  6.3329E-15
  7.9854E-15
  2.3402E-15
  4.3342E-15
  6.3282E-15
  0.0000E+00
  2.3355E-15
  4.6711E-15
  1.7549E-14
  2.3758E-14
  2.9967E-14
  8.7745E-15
  1.6264E-14
  2.3753E-14
  0.0000E+00
  8.7694E-15
  1.7539E-14
  1.3427E-13
  1.5162E-13
  1.6897E-13
  6.7137E-14
  1.0938E-13
  1.5162E-13
  0.0000E+00
  6.7136E-14
  1.3427E-13
  4.8787E-13
  5.4382E-13
  5.9976E-13
  2.4393E-13
  3.9388E-13
  5.4382E-13
  0.0000E+00
  2.4394E-13
  4.8787E-13
  1.6043E-12
  1.8270E-12
  2.0496E-12
  8.0217E-13
  1.3146E-12
  1.8270E-12
  0.0000E+00
  8.0219E-13
  1.6044E-12
  1.3179E-08
  1.3178E-08
  1.3178E-08
  1.3178E-08
  1.3178E-08
  1.3178E-08
  1.3178E-08
  1.3178E-08
  1.3179E-08
  5.2709E-08
  5.2707E-08
  5.2706E-08
  5.2711E-08
  5.2709E-08
  5.2707E-08
  5.2713E-08
  5.2711E-08
  5.2709E-08
  1.9766E-07
  1.9765E-07
  1.9765E-07
  1.9767E-07
  1.9766E-07
  1.9765E-07
  1.9767E-07
  1.9767E-07
  1.9766E-07
  7.6429E-07
  7.6428E-07
  7.6426E-07
  7.6431E-07
  7.6429E-07
  7.6428E-07
  7.6433E-07
  7.6431E-07
  7.6429E-07
  2.8199E-06
  2.8199E-06
  2.8199E-06
  2.8200E-06
  2.8199E-06
  2.8199E-06
  2.8200E-06
  2.8200E-06
  2.8199E-06
  1.0435E-05
  1.0435E-05
  1.0435E-05
  1.0435E-05
  1.0435E-05
  1.0435E-05
  1.0436E-05
  1.0435E-05
  1.0435E-05
  3.8913E-05
  3.8913E-05
  3.8913E-05
  3.8913E-05
  3.8913E-05
  3.8913E-05
  3.8913E-05
  3.8913E-05
  3.8913E-05
  1.4527E-04
  1.4527E-04
  1.4527E-04
  1.4527E-04
  1.4527E-04
  1.4527E-04
  1.4527E-04
  1.4527E-04
  1.4527E-04
  5.4227E-04
  5.4227E-04
  5.4227E-04
  5.4227E-04
  5.4227E-04
  5.4227E-04
  5.4227E-04
  5.4227E-04
  5.4227E-04
  2.0241E-03
  2.0241E-03
  2.0241E-03
  2.0241E-03
  2.0241E-03
  2.0241E-03
  2.0241E-03
  2.0241E-03
  2.0241E-03
  7.5549E-03
  7.5549E-03
  7.5549E-03
  7.5549E-03
  7.5549E-03
  7.5549E-03
  7.5549E-03
  7.5549E-03
  7.5549E-03
  2.8199E-02
  2.8199E-02
  2.8199E-02
  2.8199E-02
  2.8199E-02
  2.8199E-02
  2.8199E-02
  2.8199E-02
  2.8199E-02
  1.0525E-01
  1.0525E-01
  1.0525E-01
  1.0525E-01
  1.0525E-01
  1.0525E-01
  1.0525E-01
  1.0525E-01
  1.0525E-01
  1.6602E-01
  1.6602E-01
  1.6602E-01
  1.6602E-01
  1.6602E-01
  1.6602E-01
  1.6602E-01
  1.6602E-01
  1.6602E-01
   9.8000E-03
  4.1204E-16
  5.4970E-16
  6.8735E-16
  2.0602E-16
  3.7393E-16
  5.4184E-16
  0.0000E+00
  1.9817E-16
  3.9633E-16
  1.2213E-15
  1.6469E-15
  2.0725E-15
  6.1064E-16
  1.1262E-15
  1.6417E-15
  0.0000E+00
  6.0542E-16
  1.2108E-15
  4.8764E-15
  6.5981E-15
  8.3198E-15
  2.4382E-15
  4.5158E-15
  6.5933E-15
  0.0000E+00
  2.4334E-15
  4.8668E-15
  1.8284E-14
  2.4753E-14
  3.1222E-14
  9.1419E-15
  1.6945E-14
  2.4748E-14
  0.0000E+00
  9.1367E-15
  1.8273E-14
  1.3649E-13
  1.5468E-13
  1.7286E-13
  6.8247E-14
  1.1146E-13
  1.5468E-13
  0.0000E+00
  6.8246E-14
  1.3649E-13
  4.9621E-13
  5.5536E-13
  6.1451E-13
  2.4811E-13
  4.0174E-13
  5.5537E-13
  0.0000E+00
  2.4811E-13
  4.9622E-13
  1.7099E-12
  1.9397E-12
  2.1696E-12
  8.5493E-13
  1.3973E-12
  1.9397E-12
  0.0000E+00
  8.5495E-13
  1.7099E-12
  1.3452E-08
  1.3452E-08
  1.3451E-08
  1.3452E-08
  1.3452E-08
  1.3452E-08
  1.3451E-08
  1.3452E-08
  1.3452E-08
  5.3801E-08
  5.3800E-08
  5.3798E-08
  5.3803E-08
  5.3801E-08
  5.3800E-08
  5.3805E-08
  5.3803E-08
  5.3801E-08
  2.0176E-07
  2.0175E-07
  2.0174E-07
  2.0176E-07
  2.0176E-07
  2.0175E-07
  2.0177E-07
  2.0176E-07
  2.0176E-07
  7.8013E-07
  7.8011E-07
  7.8009E-07
  7.8015E-07
  7.8013E-07
  7.8011E-07
  7.8017E-07
  7.8015E-07
  7.8013E-07
  2.8784E-06
  2.8783E-06
  2.8783E-06
  2.8784E-06
  2.8784E-06
  2.8783E-06
  2.8784E-06
  2.8784E-06
  2.8784E-06
  1.0652E-05
  1.0652E-05
  1.0652E-05
  1.0652E-05
  1.0652E-05
  1.0652E-05
  1.0652E-05
  1.0652E-05
  1.0652E-05
  3.9719E-05
  3.9719E-05
  3.9719E-05
  3.9719E-05
  3.9719E-05
  3.9719E-05
  3.9719E-05
  3.9719E-05
  3.9719E-05
  1.4828E-04
  1.4828E-04
  1.4828E-04
  1.4828E-04
  1.4828E-04
  1.4828E-04
  1.4828E-04
  1.4828E-04
  1.4828E-04
  5.5350E-04
  5.5350E-04
  5.5350E-04
  5.5350E-04
  5.5350E-04
  5.5350E-04
  5.5350E-04
  5.5350E-04
  5.5350E-04
  2.0660E-03
  2.0660E-03
  2.0660E-03
  2.0660E-03
  2.0660E-03
  2.0660E-03
  2.0660E-03
  2.0660E-03
  2.0660E-03
  7.7114E-03
  7.7114E-03
  7.7114E-03
  7.7114E-03
  7.7114E-03
  7.7114E-03
  7.7114E-03
  7.7114E-03
  7.7114E-03
  2.8783E-02
  2.8783E-02
  2.8783E-02
  2.8783E-02
  2.8783E-02
  2.8783E-02
  2.8783E-02
  2.8783E-02
  2.8783E-02
  1.0743E-01
  1.0743E-01
  1.0743E-01
  1.0743E-01
  1.0743E-01
  1.0743E-01
  1.0743E-01
  1.0743E-01
  1.0743E-01
  1.6946E-01
  1.6946E-01
  1.6946E-01
  1.6946E-01
  1.6946E-01
  1.6946E-01
  1.6946E-01
  1.6946E-01
  1.6946E-01
   9.9000E-03
  4.2900E-16
  5.7247E-16
  7.1595E-16
  2.1450E-16
  3.8948E-16
  5.6446E-16
  0.0000E+00
  2.0648E-16
  4.1296E-16
  1.2718E-15
  1.7152E-15
  2.1585E-15
  6.3592E-16
  1.1729E-15
  1.7099E-15
  0.0000E+00
  6.3058E-16
  1.2612E-15
  5.0785E-15
  6.8716E-15
  8.6647E-15
  2.5392E-15
  4.7030E-15
  6.8667E-15
  0.0000E+00
  2.5343E-15
  5.0687E-15
  1.9041E-14
  2.5778E-14
  3.2515E-14
  9.5207E-15
  1.7647E-14
  2.5773E-14
  0.0000E+00
  9.5154E-15
  1.9031E-14
  1.3880E-13
  1.5785E-13
  1.7691E-13
  6.9400E-14
  1.1363E-13
  1.5785E-13
  0.0000E+00
  6.9399E-14
  1.3880E-13
  5.0492E-13
  5.6739E-13
  6.2987E-13
  2.5246E-13
  4.0993E-13
  5.6740E-13
  0.0000E+00
  2.5246E-13
  5.0493E-13
  1.7435E-12
  1.9860E-12
  2.2286E-12
  8.7174E-13
  1.4289E-12
  1.9860E-12
  0.0000E+00
  8.7175E-13
  1.7435E-12
  1.3728E-08
  1.3727E-08
  1.3727E-08
  1.3727E-08
  1.3727E-08
  1.3727E-08
  1.3727E-08
  1.3727E-08
  1.3728E-08
  5.4905E-08
  5.4903E-08
  5.4901E-08
  5.4907E-08
  5.4905E-08
  5.4903E-08
  5.4909E-08
  5.4907E-08
  5.4905E-08
  2.0590E-07
  2.0589E-07
  2.0588E-07
  2.0590E-07
  2.0590E-07
  2.0589E-07
  2.0591E-07
  2.0590E-07
  2.0590E-07
  7.9613E-07
  7.9611E-07
  7.9609E-07
  7.9616E-07
  7.9613E-07
  7.9611E-07
  7.9618E-07
  7.9616E-07
  7.9613E-07
  2.9374E-06
  2.9374E-06
  2.9373E-06
  2.9374E-06
  2.9374E-06
  2.9374E-06
  2.9375E-06
  2.9374E-06
  2.9374E-06
  1.0870E-05
  1.0870E-05
  1.0870E-05
  1.0870E-05
  1.0870E-05
  1.0870E-05
  1.0870E-05
  1.0870E-05
  1.0870E-05
  4.0533E-05
  4.0533E-05
  4.0533E-05
  4.0533E-05
  4.0533E-05
  4.0533E-05
  4.0533E-05
  4.0533E-05
  4.0533E-05
  1.5132E-04
  1.5132E-04
  1.5132E-04
  1.5132E-04
  1.5132E-04
  1.5132E-04
  1.5132E-04
  1.5132E-04
  1.5132E-04
  5.6485E-04
  5.6485E-04
  5.6485E-04
  5.6485E-04
  5.6485E-04
  5.6485E-04
  5.6485E-04
  5.6485E-04
  5.6485E-04
  2.1084E-03
  2.1084E-03
  2.1084E-03
  2.1084E-03
  2.1084E-03
  2.1084E-03
  2.1084E-03
  2.1084E-03
  2.1084E-03
  7.8695E-03
  7.8695E-03
  7.8695E-03
  7.8695E-03
  7.8695E-03
  7.8695E-03
  7.8695E-03
  7.8695E-03
  7.8695E-03
  2.9374E-02
  2.9374E-02
  2.9374E-02
  2.9374E-02
  2.9374E-02
  2.9374E-02
  2.9374E-02
  2.9374E-02
  2.9374E-02
  1.0963E-01
  1.0963E-01
  1.0963E-01
  1.0963E-01
  1.0963E-01
  1.0963E-01
  1.0963E-01
  1.0963E-01
  1.0963E-01
  1.7293E-01
  1.7293E-01
  1.7293E-01
  1.7293E-01
  1.7293E-01
  1.7293E-01
  1.7293E-01
  1.7293E-01
  1.7293E-01
   1.0000E-02
  4.4647E-16
  5.9595E-16
  7.4544E-16
  2.2323E-16
  4.0550E-16
  5.8777E-16
  0.0000E+00
  2.1505E-16
  4.3009E-16
  1.3239E-15
  1.7856E-15
  2.2472E-15
  6.6197E-16
  1.2211E-15
  1.7801E-15
  0.0000E+00
  6.5653E-16
  1.3131E-15
  5.2867E-15
  7.1534E-15
  9.0201E-15
  2.6434E-15
  4.8959E-15
  7.1484E-15
  0.0000E+00
  2.6384E-15
  5.2767E-15
  1.9822E-14
  2.6835E-14
  3.3849E-14
  9.9111E-15
  1.8371E-14
  2.6830E-14
  0.0000E+00
  9.9057E-15
  1.9811E-14
  1.4119E-13
  1.6115E-13
  1.8110E-13
  7.0597E-14
  1.1587E-13
  1.6115E-13
  0.0000E+00
  7.0596E-14
  1.4119E-13
  5.5052E-13
  6.1392E-13
  6.7732E-13
  2.7526E-13
  4.4459E-13
  6.1393E-13
  0.0000E+00
  2.7527E-13
  5.5053E-13
  1.8420E-12
  2.0907E-12
  2.3393E-12
  9.2100E-13
  1.5058E-12
  2.0907E-12
  0.0000E+00
  9.2101E-13
  1.8420E-12
  1.4006E-08
  1.4006E-08
  1.4006E-08
  1.4006E-08
  1.4006E-08
  1.4006E-08
  1.4006E-08
  1.4006E-08
  1.4006E-08
  5.6020E-08
  5.6018E-08
  5.6016E-08
  5.6022E-08
  5.6020E-08
  5.6018E-08
  5.6024E-08
  5.6022E-08
  5.6020E-08
  2.1008E-07
  2.1007E-07
  2.1006E-07
  2.1008E-07
  2.1008E-07
  2.1007E-07
  2.1009E-07
  2.1008E-07
  2.1008E-07
  8.1230E-07
  8.1228E-07
  8.1226E-07
  8.1232E-07
  8.1230E-07
  8.1228E-07
  8.1234E-07
  8.1232E-07
  8.1230E-07
  2.9970E-06
  2.9970E-06
  2.9970E-06
  2.9971E-06
  2.9970E-06
  2.9970E-06
  2.9971E-06
  2.9971E-06
  2.9970E-06
  1.1091E-05
  1.1091E-05
  1.1091E-05
  1.1091E-05
  1.1091E-05
  1.1091E-05
  1.1091E-05
  1.1091E-05
  1.1091E-05
  4.1355E-05
  4.1355E-05
  4.1355E-05
  4.1355E-05
  4.1355E-05
  4.1355E-05
  4.1355E-05
  4.1355E-05
  4.1355E-05
  1.5439E-04
  1.5439E-04
  1.5439E-04
  1.5439E-04
  1.5439E-04
  1.5439E-04
  1.5439E-04
  1.5439E-04
  1.5439E-04
  5.7631E-04
  5.7631E-04
  5.7631E-04
  5.7631E-04
  5.7631E-04
  5.7631E-04
  5.7631E-04
  5.7631E-04
  5.7631E-04
  2.1511E-03
  2.1511E-03
  2.1511E-03
  2.1511E-03
  2.1511E-03
  2.1511E-03
  2.1511E-03
  2.1511E-03
  2.1511E-03
  8.0292E-03
  8.0292E-03
  8.0292E-03
  8.0292E-03
  8.0292E-03
  8.0292E-03
  8.0292E-03
  8.0292E-03
  8.0292E-03
  2.9970E-02
  2.9970E-02
  2.9970E-02
  2.9970E-02
  2.9970E-02
  2.9970E-02
  2.9970E-02
  2.9970E-02
  2.9970E-02
  1.1186E-01
  1.1186E-01
  1.1186E-01
  1.1186E-01
  1.1186E-01
  1.1186E-01
  1.1186E-01
  1.1186E-01
  1.1186E-01
  1.7644E-01
  1.7644E-01
  1.7644E-01
  1.7644E-01
  1.7644E-01
  1.7644E-01
  1.7644E-01
  1.7644E-01
  1.7644E-01
   1.0100E-02
  4.6447E-16
  6.2015E-16
  7.7583E-16
  2.3223E-16
  4.2201E-16
  6.1179E-16
  0.0000E+00
  2.2388E-16
  4.4776E-16
  1.3776E-15
  1.8581E-15
  2.3386E-15
  6.8882E-16
  1.2707E-15
  1.8526E-15
  0.0000E+00
  6.8326E-16
  1.3665E-15
  5.5013E-15
  7.4438E-15
  9.3863E-15
  2.7507E-15
  5.0947E-15
  7.4387E-15
  0.0000E+00
  2.7456E-15
  5.4911E-15
  2.0627E-14
  2.7925E-14
  3.5223E-14
  1.0313E-14
  1.9116E-14
  2.7919E-14
  0.0000E+00
  1.0308E-14
  2.0616E-14
  1.4368E-13
  1.6457E-13
  1.8546E-13
  7.1840E-14
  1.1820E-13
  1.6457E-13
  0.0000E+00
  7.1839E-14
  1.4368E-13
  5.5964E-13
  6.2654E-13
  6.9343E-13
  2.7982E-13
  4.5318E-13
  6.2654E-13
  0.0000E+00
  2.7982E-13
  5.5965E-13
  1.9505E-12
  2.2075E-12
  2.4645E-12
  9.7525E-13
  1.5914E-12
  2.2075E-12
  0.0000E+00
  9.7526E-13
  1.9505E-12
  1.4288E-08
  1.4288E-08
  1.4288E-08
  1.4288E-08
  1.4288E-08
  1.4288E-08
  1.4287E-08
  1.4288E-08
  1.4288E-08
  5.7146E-08
  5.7144E-08
  5.7142E-08
  5.7148E-08
  5.7146E-08
  5.7144E-08
  5.7150E-08
  5.7148E-08
  5.7146E-08
  2.1430E-07
  2.1429E-07
  2.1428E-07
  2.1430E-07
  2.1430E-07
  2.1429E-07
  2.1431E-07
  2.1430E-07
  2.1430E-07
  8.2863E-07
  8.2860E-07
  8.2858E-07
  8.2865E-07
  8.2863E-07
  8.2860E-07
  8.2867E-07
  8.2865E-07
  8.2863E-07
  3.0573E-06
  3.0572E-06
  3.0572E-06
  3.0573E-06
  3.0573E-06
  3.0572E-06
  3.0573E-06
  3.0573E-06
  3.0573E-06
  1.1313E-05
  1.1313E-05
  1.1313E-05
  1.1313E-05
  1.1313E-05
  1.1313E-05
  1.1313E-05
  1.1313E-05
  1.1313E-05
  4.2186E-05
  4.2186E-05
  4.2186E-05
  4.2186E-05
  4.2186E-05
  4.2186E-05
  4.2186E-05
  4.2186E-05
  4.2186E-05
  1.5749E-04
  1.5749E-04
  1.5749E-04
  1.5749E-04
  1.5749E-04
  1.5749E-04
  1.5749E-04
  1.5749E-04
  1.5749E-04
  5.8789E-04
  5.8789E-04
  5.8789E-04
  5.8789E-04
  5.8789E-04
  5.8789E-04
  5.8789E-04
  5.8789E-04
  5.8789E-04
  2.1944E-03
  2.1944E-03
  2.1944E-03
  2.1944E-03
  2.1944E-03
  2.1944E-03
  2.1944E-03
  2.1944E-03
  2.1944E-03
  8.1905E-03
  8.1905E-03
  8.1905E-03
  8.1905E-03
  8.1905E-03
  8.1905E-03
  8.1905E-03
  8.1905E-03
  8.1905E-03
  3.0572E-02
  3.0572E-02
  3.0572E-02
  3.0572E-02
  3.0572E-02
  3.0572E-02
  3.0572E-02
  3.0572E-02
  3.0572E-02
  1.1411E-01
  1.1411E-01
  1.1411E-01
  1.1411E-01
  1.1411E-01
  1.1411E-01
  1.1411E-01
  1.1411E-01
  1.1411E-01
  1.7999E-01
  1.7999E-01
  1.7999E-01
  1.7999E-01
  1.7999E-01
  1.7999E-01
  1.7999E-01
  1.7999E-01
  1.7999E-01
   1.0200E-02
  4.8301E-16
  6.4507E-16
  8.0713E-16
  2.4151E-16
  4.3902E-16
  6.3654E-16
  0.0000E+00
  2.3298E-16
  4.6596E-16
  1.4330E-15
  1.9329E-15
  2.4328E-15
  7.1648E-16
  1.3218E-15
  1.9272E-15
  0.0000E+00
  7.1080E-16
  1.4216E-15
  5.7224E-15
  7.7430E-15
  9.7636E-15
  2.8612E-15
  5.2995E-15
  7.7378E-15
  0.0000E+00
  2.8560E-15
  5.7120E-15
  2.1456E-14
  2.9047E-14
  3.6638E-14
  1.0728E-14
  1.9885E-14
  2.9041E-14
  0.0000E+00
  1.0722E-14
  2.1445E-14
  1.4626E-13
  1.6812E-13
  1.8997E-13
  7.3130E-14
  1.2062E-13
  1.6811E-13
  0.0000E+00
  7.3129E-14
  1.4626E-13
  5.6913E-13
  6.3966E-13
  7.1019E-13
  2.8457E-13
  4.6211E-13
  6.3966E-13
  0.0000E+00
  2.8457E-13
  5.6914E-13
  1.9871E-12
  2.2580E-12
  2.5289E-12
  9.9355E-13
  1.6258E-12
  2.2580E-12
  0.0000E+00
  9.9356E-13
  1.9871E-12
  1.4572E-08
  1.4572E-08
  1.4572E-08
  1.4572E-08
  1.4572E-08
  1.4572E-08
  1.4572E-08
  1.4572E-08
  1.4572E-08
  5.8283E-08
  5.8281E-08
  5.8279E-08
  5.8285E-08
  5.8283E-08
  5.8281E-08
  5.8287E-08
  5.8285E-08
  5.8283E-08
  2.1856E-07
  2.1855E-07
  2.1855E-07
  2.1857E-07
  2.1856E-07
  2.1855E-07
  2.1858E-07
  2.1857E-07
  2.1856E-07
  8.4511E-07
  8.4509E-07
  8.4507E-07
  8.4514E-07
  8.4511E-07
  8.4509E-07
  8.4516E-07
  8.4514E-07
  8.4511E-07
  3.1181E-06
  3.1181E-06
  3.1180E-06
  3.1181E-06
  3.1181E-06
  3.1181E-06
  3.1182E-06
  3.1181E-06
  3.1181E-06
  1.1538E-05
  1.1538E-05
  1.1538E-05
  1.1538E-05
  1.1538E-05
  1.1538E-05
  1.1538E-05
  1.1538E-05
  1.1538E-05
  4.3025E-05
  4.3025E-05
  4.3025E-05
  4.3025E-05
  4.3025E-05
  4.3025E-05
  4.3025E-05
  4.3025E-05
  4.3025E-05
  1.6062E-04
  1.6062E-04
  1.6062E-04
  1.6062E-04
  1.6062E-04
  1.6062E-04
  1.6062E-04
  1.6062E-04
  1.6062E-04
  5.9958E-04
  5.9958E-04
  5.9958E-04
  5.9958E-04
  5.9958E-04
  5.9958E-04
  5.9958E-04
  5.9958E-04
  5.9958E-04
  2.2380E-03
  2.2380E-03
  2.2380E-03
  2.2380E-03
  2.2380E-03
  2.2380E-03
  2.2380E-03
  2.2380E-03
  2.2380E-03
  8.3535E-03
  8.3535E-03
  8.3535E-03
  8.3535E-03
  8.3535E-03
  8.3535E-03
  8.3535E-03
  8.3535E-03
  8.3535E-03
  3.1180E-02
  3.1180E-02
  3.1180E-02
  3.1180E-02
  3.1180E-02
  3.1180E-02
  3.1180E-02
  3.1180E-02
  3.1180E-02
  1.1638E-01
  1.1638E-01
  1.1638E-01
  1.1638E-01
  1.1638E-01
  1.1638E-01
  1.1638E-01
  1.1638E-01
  1.1638E-01
  1.8357E-01
  1.8357E-01
  1.8357E-01
  1.8357E-01
  1.8357E-01
  1.8357E-01
  1.8357E-01
  1.8357E-01
  1.8357E-01
   1.0300E-02
  5.0210E-16
  6.7074E-16
  8.3937E-16
  2.5105E-16
  4.5654E-16
  6.6204E-16
  0.0000E+00
  2.4235E-16
  4.8470E-16
  1.4899E-15
  2.0098E-15
  2.5298E-15
  7.4496E-16
  1.3745E-15
  2.0041E-15
  0.0000E+00
  7.3917E-16
  1.4783E-15
  5.9501E-15
  8.0511E-15
  1.0152E-14
  2.9750E-15
  5.5104E-15
  8.0458E-15
  0.0000E+00
  2.9697E-15
  5.9395E-15
  2.2310E-14
  3.0202E-14
  3.8095E-14
  1.1155E-14
  2.0676E-14
  3.0197E-14
  0.0000E+00
  1.1149E-14
  2.2298E-14
  1.4893E-13
  1.7179E-13
  1.9465E-13
  7.4467E-14
  1.2313E-13
  1.7179E-13
  0.0000E+00
  7.4466E-14
  1.4893E-13
  5.7901E-13
  6.5330E-13
  7.2760E-13
  2.8950E-13
  4.7141E-13
  6.5331E-13
  0.0000E+00
  2.8951E-13
  5.7902E-13
  2.0983E-12
  2.3785E-12
  2.6588E-12
  1.0492E-12
  1.7139E-12
  2.3786E-12
  0.0000E+00
  1.0492E-12
  2.0984E-12
  1.4860E-08
  1.4859E-08
  1.4859E-08
  1.4859E-08
  1.4859E-08
  1.4859E-08
  1.4859E-08
  1.4859E-08
  1.4860E-08
  5.9431E-08
  5.9429E-08
  5.9427E-08
  5.9433E-08
  5.9431E-08
  5.9429E-08
  5.9435E-08
  5.9433E-08
  5.9431E-08
  2.2287E-07
  2.2286E-07
  2.2285E-07
  2.2288E-07
  2.2287E-07
  2.2286E-07
  2.2288E-07
  2.2288E-07
  2.2287E-07
  8.6176E-07
  8.6174E-07
  8.6172E-07
  8.6179E-07
  8.6176E-07
  8.6174E-07
  8.6181E-07
  8.6179E-07
  8.6176E-07
  3.1795E-06
  3.1795E-06
  3.1795E-06
  3.1796E-06
  3.1795E-06
  3.1795E-06
  3.1796E-06
  3.1796E-06
  3.1795E-06
  1.1766E-05
  1.1766E-05
  1.1766E-05
  1.1766E-05
  1.1766E-05
  1.1766E-05
  1.1766E-05
  1.1766E-05
  1.1766E-05
  4.3872E-05
  4.3872E-05
  4.3872E-05
  4.3872E-05
  4.3872E-05
  4.3872E-05
  4.3872E-05
  4.3872E-05
  4.3872E-05
  1.6379E-04
  1.6379E-04
  1.6379E-04
  1.6378E-04
  1.6379E-04
  1.6379E-04
  1.6378E-04
  1.6378E-04
  1.6379E-04
  6.1139E-04
  6.1139E-04
  6.1139E-04
  6.1139E-04
  6.1139E-04
  6.1139E-04
  6.1139E-04
  6.1139E-04
  6.1139E-04
  2.2821E-03
  2.2821E-03
  2.2821E-03
  2.2821E-03
  2.2821E-03
  2.2821E-03
  2.2821E-03
  2.2821E-03
  2.2821E-03
  8.5180E-03
  8.5180E-03
  8.5180E-03
  8.5180E-03
  8.5180E-03
  8.5180E-03
  8.5180E-03
  8.5180E-03
  8.5180E-03
  3.1795E-02
  3.1795E-02
  3.1795E-02
  3.1795E-02
  3.1795E-02
  3.1795E-02
  3.1795E-02
  3.1795E-02
  3.1795E-02
  1.1867E-01
  1.1867E-01
  1.1867E-01
  1.1867E-01
  1.1867E-01
  1.1867E-01
  1.1867E-01
  1.1867E-01
  1.1867E-01
  1.8719E-01
  1.8719E-01
  1.8719E-01
  1.8719E-01
  1.8719E-01
  1.8719E-01
  1.8719E-01
  1.8719E-01
  1.8719E-01
   1.0400E-02
  5.2176E-16
  6.9716E-16
  8.7257E-16
  2.6088E-16
  4.7458E-16
  6.8829E-16
  0.0000E+00
  2.5200E-16
  5.0401E-16
  1.5486E-15
  2.0891E-15
  2.6296E-15
  7.7428E-16
  1.4287E-15
  2.0832E-15
  0.0000E+00
  7.6838E-16
  1.5368E-15
  6.1845E-15
  8.3683E-15
  1.0552E-14
  3.0922E-15
  5.7276E-15
  8.3629E-15
  0.0000E+00
  3.0868E-15
  6.1736E-15
  2.3188E-14
  3.1392E-14
  3.9596E-14
  1.1594E-14
  2.1490E-14
  3.1386E-14
  0.0000E+00
  1.1588E-14
  2.3177E-14
  1.5171E-13
  1.7561E-13
  1.9950E-13
  7.5854E-14
  1.2573E-13
  1.7560E-13
  0.0000E+00
  7.5853E-14
  1.5171E-13
  5.8928E-13
  6.6748E-13
  7.4568E-13
  2.9464E-13
  4.8106E-13
  6.6748E-13
  0.0000E+00
  2.9465E-13
  5.8929E-13
  2.1372E-12
  2.4321E-12
  2.7271E-12
  1.0686E-12
  1.7504E-12
  2.4321E-12
  0.0000E+00
  1.0686E-12
  2.1372E-12
  1.5149E-08
  1.5149E-08
  1.5149E-08
  1.5149E-08
  1.5149E-08
  1.5149E-08
  1.5149E-08
  1.5149E-08
  1.5149E-08
  6.0591E-08
  6.0588E-08
  6.0586E-08
  6.0593E-08
  6.0591E-08
  6.0588E-08
  6.0595E-08
  6.0593E-08
  6.0591E-08
  2.2722E-07
  2.2721E-07
  2.2720E-07
  2.2722E-07
  2.2722E-07
  2.2721E-07
  2.2723E-07
  2.2722E-07
  2.2722E-07
  8.7858E-07
  8.7855E-07
  8.7853E-07
  8.7860E-07
  8.7858E-07
  8.7855E-07
  8.7863E-07
  8.7860E-07
  8.7858E-07
  3.2416E-06
  3.2415E-06
  3.2415E-06
  3.2416E-06
  3.2416E-06
  3.2415E-06
  3.2416E-06
  3.2416E-06
  3.2416E-06
  1.1995E-05
  1.1995E-05
  1.1995E-05
  1.1995E-05
  1.1995E-05
  1.1995E-05
  1.1995E-05
  1.1995E-05
  1.1995E-05
  4.4727E-05
  4.4727E-05
  4.4727E-05
  4.4727E-05
  4.4727E-05
  4.4727E-05
  4.4727E-05
  4.4727E-05
  4.4727E-05
  1.6698E-04
  1.6698E-04
  1.6698E-04
  1.6698E-04
  1.6698E-04
  1.6698E-04
  1.6698E-04
  1.6698E-04
  1.6698E-04
  6.2331E-04
  6.2331E-04
  6.2331E-04
  6.2331E-04
  6.2331E-04
  6.2331E-04
  6.2331E-04
  6.2331E-04
  6.2331E-04
  2.3266E-03
  2.3266E-03
  2.3266E-03
  2.3266E-03
  2.3266E-03
  2.3266E-03
  2.3266E-03
  2.3266E-03
  2.3266E-03
  8.6841E-03
  8.6841E-03
  8.6841E-03
  8.6841E-03
  8.6841E-03
  8.6841E-03
  8.6841E-03
  8.6841E-03
  8.6841E-03
  3.2415E-02
  3.2415E-02
  3.2415E-02
  3.2415E-02
  3.2415E-02
  3.2415E-02
  3.2415E-02
  3.2415E-02
  3.2415E-02
  1.2098E-01
  1.2098E-01
  1.2098E-01
  1.2098E-01
  1.2098E-01
  1.2098E-01
  1.2098E-01
  1.2098E-01
  1.2098E-01
  1.9084E-01
  1.9084E-01
  1.9084E-01
  1.9084E-01
  1.9084E-01
  1.9084E-01
  1.9084E-01
  1.9084E-01
  1.9084E-01
   1.0500E-02
  5.4198E-16
  7.2436E-16
  9.0674E-16
  2.7099E-16
  4.9315E-16
  7.1531E-16
  0.0000E+00
  2.6194E-16
  5.2388E-16
  1.6089E-15
  2.1706E-15
  2.7324E-15
  8.0446E-16
  1.4845E-15
  2.1646E-15
  0.0000E+00
  7.9844E-16
  1.5969E-15
  6.4257E-15
  8.6948E-15
  1.0964E-14
  3.2128E-15
  5.9511E-15
  8.6893E-15
  0.0000E+00
  3.2073E-15
  6.4147E-15
  2.4093E-14
  3.2617E-14
  4.1140E-14
  1.2047E-14
  2.2329E-14
  3.2611E-14
  0.0000E+00
  1.2041E-14
  2.4081E-14
  1.5458E-13
  1.7956E-13
  2.0453E-13
  7.7291E-14
  1.2842E-13
  1.7955E-13
  0.0000E+00
  7.7290E-14
  1.5458E-13
  6.3654E-13
  7.1627E-13
  7.9599E-13
  3.1827E-13
  5.1727E-13
  7.1628E-13
  0.0000E+00
  3.1828E-13
  6.3656E-13
  2.2412E-12
  2.5443E-12
  2.8474E-12
  1.1206E-12
  1.8325E-12
  2.5443E-12
  0.0000E+00
  1.1206E-12
  2.2413E-12
  1.5442E-08
  1.5442E-08
  1.5442E-08
  1.5442E-08
  1.5442E-08
  1.5442E-08
  1.5441E-08
  1.5442E-08
  1.5442E-08
  6.1761E-08
  6.1759E-08
  6.1757E-08
  6.1764E-08
  6.1761E-08
  6.1759E-08
  6.1766E-08
  6.1764E-08
  6.1761E-08
  2.3161E-07
  2.3160E-07
  2.3159E-07
  2.3161E-07
  2.3161E-07
  2.3160E-07
  2.3162E-07
  2.3161E-07
  2.3161E-07
  8.9555E-07
  8.9553E-07
  8.9550E-07
  8.9558E-07
  8.9555E-07
  8.9553E-07
  8.9561E-07
  8.9558E-07
  8.9555E-07
  3.3042E-06
  3.3042E-06
  3.3041E-06
  3.3042E-06
  3.3042E-06
  3.3042E-06
  3.3043E-06
  3.3042E-06
  3.3042E-06
  1.2227E-05
  1.2227E-05
  1.2227E-05
  1.2227E-05
  1.2227E-05
  1.2227E-05
  1.2227E-05
  1.2227E-05
  1.2227E-05
  4.5591E-05
  4.5591E-05
  4.5591E-05
  4.5591E-05
  4.5591E-05
  4.5591E-05
  4.5591E-05
  4.5591E-05
  4.5591E-05
  1.7020E-04
  1.7020E-04
  1.7020E-04
  1.7020E-04
  1.7020E-04
  1.7020E-04
  1.7020E-04
  1.7020E-04
  1.7020E-04
  6.3534E-04
  6.3534E-04
  6.3534E-04
  6.3534E-04
  6.3534E-04
  6.3534E-04
  6.3534E-04
  6.3534E-04
  6.3534E-04
  2.3715E-03
  2.3715E-03
  2.3715E-03
  2.3715E-03
  2.3715E-03
  2.3715E-03
  2.3715E-03
  2.3715E-03
  2.3715E-03
  8.8519E-03
  8.8519E-03
  8.8519E-03
  8.8519E-03
  8.8519E-03
  8.8519E-03
  8.8519E-03
  8.8519E-03
  8.8519E-03
  3.3041E-02
  3.3041E-02
  3.3041E-02
  3.3041E-02
  3.3041E-02
  3.3041E-02
  3.3041E-02
  3.3041E-02
  3.3041E-02
  1.2332E-01
  1.2332E-01
  1.2332E-01
  1.2332E-01
  1.2332E-01
  1.2332E-01
  1.2332E-01
  1.2332E-01
  1.2332E-01
  1.9452E-01
  1.9452E-01
  1.9452E-01
  1.9452E-01
  1.9452E-01
  1.9452E-01
  1.9452E-01
  1.9452E-01
  1.9452E-01
   1.0600E-02
  5.6279E-16
  7.5235E-16
  9.4190E-16
  2.8140E-16
  5.1226E-16
  7.4312E-16
  0.0000E+00
  2.7217E-16
  5.4434E-16
  1.6710E-15
  2.2546E-15
  2.8381E-15
  8.3551E-16
  1.5420E-15
  2.2484E-15
  0.0000E+00
  8.2938E-16
  1.6588E-15
  6.6739E-15
  9.0307E-15
  1.1388E-14
  3.3370E-15
  6.1810E-15
  9.0251E-15
  0.0000E+00
  3.3314E-15
  6.6627E-15
  2.5024E-14
  3.3877E-14
  4.2729E-14
  1.2512E-14
  2.3191E-14
  3.3871E-14
  0.0000E+00
  1.2506E-14
  2.5012E-14
  1.5756E-13
  1.8365E-13
  2.0973E-13
  7.8780E-14
  1.3121E-13
  1.8364E-13
  0.0000E+00
  7.8779E-14
  1.5756E-13
  6.4732E-13
  7.3115E-13
  8.1498E-13
  3.2366E-13
  5.2741E-13
  7.3115E-13
  0.0000E+00
  3.2366E-13
  6.4733E-13
  2.3556E-12
  2.6693E-12
  2.9829E-12
  1.1778E-12
  1.9235E-12
  2.6693E-12
  0.0000E+00
  1.1778E-12
  2.3556E-12
  1.5738E-08
  1.5738E-08
  1.5737E-08
  1.5737E-08
  1.5737E-08
  1.5738E-08
  1.5737E-08
  1.5737E-08
  1.5738E-08
  6.2943E-08
  6.2941E-08
  6.2938E-08
  6.2946E-08
  6.2943E-08
  6.2941E-08
  6.2948E-08
  6.2946E-08
  6.2943E-08
  2.3604E-07
  2.3603E-07
  2.3602E-07
  2.3605E-07
  2.3604E-07
  2.3603E-07
  2.3606E-07
  2.3605E-07
  2.3604E-07
  9.1269E-07
  9.1267E-07
  9.1264E-07
  9.1272E-07
  9.1269E-07
  9.1267E-07
  9.1275E-07
  9.1272E-07
  9.1269E-07
  3.3674E-06
  3.3674E-06
  3.3674E-06
  3.3675E-06
  3.3674E-06
  3.3674E-06
  3.3675E-06
  3.3675E-06
  3.3674E-06
  1.2461E-05
  1.2461E-05
  1.2461E-05
  1.2461E-05
  1.2461E-05
  1.2461E-05
  1.2461E-05
  1.2461E-05
  1.2461E-05
  4.6462E-05
  4.6462E-05
  4.6462E-05
  4.6462E-05
  4.6462E-05
  4.6462E-05
  4.6462E-05
  4.6462E-05
  4.6462E-05
  1.7346E-04
  1.7346E-04
  1.7346E-04
  1.7346E-04
  1.7346E-04
  1.7346E-04
  1.7346E-04
  1.7346E-04
  1.7346E-04
  6.4749E-04
  6.4749E-04
  6.4749E-04
  6.4749E-04
  6.4749E-04
  6.4749E-04
  6.4749E-04
  6.4749E-04
  6.4749E-04
  2.4169E-03
  2.4169E-03
  2.4169E-03
  2.4169E-03
  2.4169E-03
  2.4169E-03
  2.4169E-03
  2.4169E-03
  2.4169E-03
  9.0212E-03
  9.0212E-03
  9.0212E-03
  9.0212E-03
  9.0212E-03
  9.0212E-03
  9.0212E-03
  9.0212E-03
  9.0212E-03
  3.3673E-02
  3.3673E-02
  3.3673E-02
  3.3673E-02
  3.3673E-02
  3.3673E-02
  3.3673E-02
  3.3673E-02
  3.3673E-02
  1.2568E-01
  1.2568E-01
  1.2568E-01
  1.2568E-01
  1.2568E-01
  1.2568E-01
  1.2568E-01
  1.2568E-01
  1.2568E-01
  1.9825E-01
  1.9825E-01
  1.9825E-01
  1.9825E-01
  1.9825E-01
  1.9825E-01
  1.9825E-01
  1.9825E-01
  1.9825E-01
   1.0700E-02
  5.8420E-16
  7.8114E-16
  9.7808E-16
  2.9210E-16
  5.3192E-16
  7.7173E-16
  0.0000E+00
  2.8269E-16
  5.6539E-16
  1.7349E-15
  2.3409E-15
  2.9469E-15
  8.6746E-16
  1.6011E-15
  2.3346E-15
  0.0000E+00
  8.6120E-16
  1.7224E-15
  6.9293E-15
  9.3763E-15
  1.1823E-14
  3.4646E-15
  6.4176E-15
  9.3706E-15
  0.0000E+00
  3.4589E-15
  6.9178E-15
  2.5981E-14
  3.5173E-14
  4.4364E-14
  1.2991E-14
  2.4079E-14
  3.5167E-14
  0.0000E+00
  1.2985E-14
  2.5969E-14
  1.6064E-13
  1.8788E-13
  2.1511E-13
  8.0322E-14
  1.3410E-13
  1.8788E-13
  0.0000E+00
  8.0320E-14
  1.6064E-13
  6.5851E-13
  7.4659E-13
  8.3467E-13
  3.2925E-13
  5.3792E-13
  7.4659E-13
  0.0000E+00
  3.2926E-13
  6.5852E-13
  2.3980E-12
  2.7276E-12
  3.0573E-12
  1.1990E-12
  1.9633E-12
  2.7276E-12
  0.0000E+00
  1.1990E-12
  2.3980E-12
  1.6036E-08
  1.6036E-08
  1.6036E-08
  1.6036E-08
  1.6036E-08
  1.6036E-08
  1.6035E-08
  1.6036E-08
  1.6036E-08
  6.4136E-08
  6.4134E-08
  6.4131E-08
  6.4139E-08
  6.4136E-08
  6.4134E-08
  6.4141E-08
  6.4139E-08
  6.4136E-08
  2.4051E-07
  2.4050E-07
  2.4050E-07
  2.4052E-07
  2.4051E-07
  2.4050E-07
  2.4053E-07
  2.4052E-07
  2.4051E-07
  9.2999E-07
  9.2997E-07
  9.2994E-07
  9.3002E-07
  9.2999E-07
  9.2997E-07
  9.3005E-07
  9.3002E-07
  9.2999E-07
  3.4313E-06
  3.4312E-06
  3.4312E-06
  3.4313E-06
  3.4313E-06
  3.4312E-06
  3.4313E-06
  3.4313E-06
  3.4313E-06
  1.2697E-05
  1.2697E-05
  1.2697E-05
  1.2697E-05
  1.2697E-05
  1.2697E-05
  1.2697E-05
  1.2697E-05
  1.2697E-05
  4.7342E-05
  4.7342E-05
  4.7342E-05
  4.7342E-05
  4.7342E-05
  4.7342E-05
  4.7342E-05
  4.7342E-05
  4.7342E-05
  1.7674E-04
  1.7674E-04
  1.7674E-04
  1.7674E-04
  1.7674E-04
  1.7674E-04
  1.7674E-04
  1.7674E-04
  1.7674E-04
  6.5976E-04
  6.5976E-04
  6.5976E-04
  6.5976E-04
  6.5976E-04
  6.5976E-04
  6.5976E-04
  6.5976E-04
  6.5976E-04
  2.4627E-03
  2.4627E-03
  2.4627E-03
  2.4627E-03
  2.4627E-03
  2.4627E-03
  2.4627E-03
  2.4627E-03
  2.4627E-03
  9.1921E-03
  9.1921E-03
  9.1921E-03
  9.1921E-03
  9.1921E-03
  9.1921E-03
  9.1921E-03
  9.1921E-03
  9.1921E-03
  3.4311E-02
  3.4311E-02
  3.4311E-02
  3.4311E-02
  3.4311E-02
  3.4311E-02
  3.4311E-02
  3.4311E-02
  3.4311E-02
  1.2806E-01
  1.2806E-01
  1.2806E-01
  1.2806E-01
  1.2806E-01
  1.2806E-01
  1.2806E-01
  1.2806E-01
  1.2806E-01
  2.0200E-01
  2.0200E-01
  2.0200E-01
  2.0200E-01
  2.0200E-01
  2.0200E-01
  2.0200E-01
  2.0200E-01
  2.0200E-01
   1.0800E-02
  6.0621E-16
  8.1075E-16
  1.0153E-15
  3.0311E-16
  5.5213E-16
  8.0116E-16
  0.0000E+00
  2.9352E-16
  5.8704E-16
  1.8006E-15
  2.4297E-15
  3.0588E-15
  9.0031E-16
  1.6618E-15
  2.4233E-15
  0.0000E+00
  8.9393E-16
  1.7879E-15
  7.1919E-15
  9.7317E-15
  1.2272E-14
  3.5960E-15
  6.6609E-15
  9.7259E-15
  0.0000E+00
  3.5901E-15
  7.1802E-15
  2.6966E-14
  3.6506E-14
  4.6045E-14
  1.3483E-14
  2.4991E-14
  3.6500E-14
  0.0000E+00
  1.3477E-14
  2.6954E-14
  1.6383E-13
  1.9226E-13
  2.2068E-13
  8.1917E-14
  1.3709E-13
  1.9226E-13
  0.0000E+00
  8.1916E-14
  1.6383E-13
  6.7012E-13
  7.6260E-13
  8.5508E-13
  3.3506E-13
  5.4883E-13
  7.6260E-13
  0.0000E+00
  3.3507E-13
  6.7013E-13
  2.5151E-12
  2.8563E-12
  3.1975E-12
  1.2576E-12
  2.0570E-12
  2.8563E-12
  0.0000E+00
  1.2576E-12
  2.5152E-12
  1.6337E-08
  1.6337E-08
  1.6337E-08
  1.6337E-08
  1.6337E-08
  1.6337E-08
  1.6336E-08
  1.6337E-08
  1.6337E-08
  6.5341E-08
  6.5338E-08
  6.5335E-08
  6.5343E-08
  6.5341E-08
  6.5338E-08
  6.5346E-08
  6.5343E-08
  6.5341E-08
  2.4503E-07
  2.4502E-07
  2.4501E-07
  2.4504E-07
  2.4503E-07
  2.4502E-07
  2.4505E-07
  2.4504E-07
  2.4503E-07
  9.4746E-07
  9.4743E-07
  9.4740E-07
  9.4749E-07
  9.4746E-07
  9.4743E-07
  9.4752E-07
  9.4749E-07
  9.4746E-07
  3.4957E-06
  3.4957E-06
  3.4956E-06
  3.4957E-06
  3.4957E-06
  3.4957E-06
  3.4957E-06
  3.4957E-06
  3.4957E-06
  1.2935E-05
  1.2935E-05
  1.2935E-05
  1.2935E-05
  1.2935E-05
  1.2935E-05
  1.2935E-05
  1.2935E-05
  1.2935E-05
  4.8231E-05
  4.8231E-05
  4.8231E-05
  4.8231E-05
  4.8231E-05
  4.8231E-05
  4.8231E-05
  4.8231E-05
  4.8231E-05
  1.8006E-04
  1.8006E-04
  1.8006E-04
  1.8006E-04
  1.8006E-04
  1.8006E-04
  1.8006E-04
  1.8006E-04
  1.8006E-04
  6.7214E-04
  6.7214E-04
  6.7214E-04
  6.7214E-04
  6.7214E-04
  6.7214E-04
  6.7214E-04
  6.7214E-04
  6.7214E-04
  2.5089E-03
  2.5089E-03
  2.5089E-03
  2.5089E-03
  2.5089E-03
  2.5089E-03
  2.5089E-03
  2.5089E-03
  2.5089E-03
  9.3647E-03
  9.3647E-03
  9.3647E-03
  9.3647E-03
  9.3647E-03
  9.3647E-03
  9.3647E-03
  9.3647E-03
  9.3647E-03
  3.4956E-02
  3.4956E-02
  3.4956E-02
  3.4956E-02
  3.4956E-02
  3.4956E-02
  3.4956E-02
  3.4956E-02
  3.4956E-02
  1.3047E-01
  1.3047E-01
  1.3047E-01
  1.3047E-01
  1.3047E-01
  1.3047E-01
  1.3047E-01
  1.3047E-01
  1.3047E-01
  2.0580E-01
  2.0580E-01
  2.0580E-01
  2.0580E-01
  2.0580E-01
  2.0580E-01
  2.0580E-01
  2.0580E-01
  2.0580E-01
   1.0900E-02
  6.2884E-16
  8.4119E-16
  1.0535E-15
  3.1442E-16
  5.7292E-16
  8.3142E-16
  0.0000E+00
  3.0465E-16
  6.0930E-16
  1.8682E-15
  2.5210E-15
  3.1738E-15
  9.3408E-16
  1.7243E-15
  2.5145E-15
  0.0000E+00
  9.2759E-16
  1.8552E-15
  7.4619E-15
  1.0097E-14
  1.2732E-14
  3.7310E-15
  6.9111E-15
  1.0091E-14
  0.0000E+00
  3.7250E-15
  7.4500E-15
  2.7979E-14
  3.7876E-14
  4.7774E-14
  1.3989E-14
  2.5930E-14
  3.7870E-14
  0.0000E+00
  1.3983E-14
  2.7966E-14
  1.6714E-13
  1.9679E-13
  2.2644E-13
  8.3568E-14
  1.4018E-13
  1.9679E-13
  0.0000E+00
  8.3566E-14
  1.6713E-13
  6.8216E-13
  7.7919E-13
  8.7622E-13
  3.4108E-13
  5.6014E-13
  7.7920E-13
  0.0000E+00
  3.4109E-13
  6.8217E-13
  2.5601E-12
  2.9183E-12
  3.2764E-12
  1.2800E-12
  2.0992E-12
  2.9183E-12
  0.0000E+00
  1.2801E-12
  2.5601E-12
  1.6641E-08
  1.6641E-08
  1.6641E-08
  1.6641E-08
  1.6641E-08
  1.6641E-08
  1.6640E-08
  1.6641E-08
  1.6641E-08
  6.6556E-08
  6.6553E-08
  6.6551E-08
  6.6559E-08
  6.6556E-08
  6.6553E-08
  6.6562E-08
  6.6559E-08
  6.6556E-08
  2.4959E-07
  2.4958E-07
  2.4957E-07
  2.4960E-07
  2.4959E-07
  2.4958E-07
  2.4961E-07
  2.4960E-07
  2.4959E-07
  9.6508E-07
  9.6505E-07
  9.6502E-07
  9.6511E-07
  9.6508E-07
  9.6505E-07
  9.6514E-07
  9.6511E-07
  9.6508E-07
  3.5607E-06
  3.5607E-06
  3.5606E-06
  3.5607E-06
  3.5607E-06
  3.5607E-06
  3.5608E-06
  3.5607E-06
  3.5607E-06
  1.3175E-05
  1.3175E-05
  1.3175E-05
  1.3176E-05
  1.3175E-05
  1.3175E-05
  1.3176E-05
  1.3176E-05
  1.3175E-05
  4.9127E-05
  4.9127E-05
  4.9127E-05
  4.9127E-05
  4.9127E-05
  4.9127E-05
  4.9127E-05
  4.9127E-05
  4.9127E-05
  1.8340E-04
  1.8341E-04
  1.8341E-04
  1.8340E-04
  1.8340E-04
  1.8341E-04
  1.8340E-04
  1.8340E-04
  1.8340E-04
  6.8463E-04
  6.8463E-04
  6.8463E-04
  6.8463E-04
  6.8463E-04
  6.8463E-04
  6.8463E-04
  6.8463E-04
  6.8463E-04
  2.5555E-03
  2.5555E-03
  2.5555E-03
  2.5555E-03
  2.5555E-03
  2.5555E-03
  2.5555E-03
  2.5555E-03
  2.5555E-03
  9.5388E-03
  9.5388E-03
  9.5388E-03
  9.5388E-03
  9.5388E-03
  9.5388E-03
  9.5388E-03
  9.5388E-03
  9.5388E-03
  3.5606E-02
  3.5606E-02
  3.5606E-02
  3.5606E-02
  3.5606E-02
  3.5606E-02
  3.5606E-02
  3.5606E-02
  3.5606E-02
  1.3290E-01
  1.3290E-01
  1.3290E-01
  1.3290E-01
  1.3290E-01
  1.3290E-01
  1.3290E-01
  1.3290E-01
  1.3290E-01
  2.0963E-01
  2.0963E-01
  2.0963E-01
  2.0963E-01
  2.0963E-01
  2.0963E-01
  2.0963E-01
  2.0963E-01
  2.0963E-01
   1.1000E-02
  6.5210E-16
  8.7248E-16
  1.0929E-15
  3.2605E-16
  5.9429E-16
  8.6253E-16
  0.0000E+00
  3.1609E-16
  6.3219E-16
  1.9376E-15
  2.6148E-15
  3.2920E-15
  9.6880E-16
  1.7885E-15
  2.6082E-15
  0.0000E+00
  9.6218E-16
  1.9244E-15
  7.7395E-15
  1.0473E-14
  1.3206E-14
  3.8697E-15
  7.1682E-15
  1.0467E-14
  0.0000E+00
  3.8637E-15
  7.7274E-15
  2.9019E-14
  3.9285E-14
  4.9551E-14
  1.4510E-14
  2.6894E-14
  3.9279E-14
  0.0000E+00
  1.4503E-14
  2.9006E-14
  1.7055E-13
  2.0147E-13
  2.3239E-13
  8.5274E-14
  1.4337E-13
  2.0147E-13
  0.0000E+00
  8.5273E-14
  1.7055E-13
  7.3109E-13
  8.3026E-13
  9.2943E-13
  3.6554E-13
  5.9790E-13
  8.3027E-13
  0.0000E+00
  3.6555E-13
  7.3110E-13
  2.6701E-12
  3.0387E-12
  3.4073E-12
  1.3350E-12
  2.1869E-12
  3.0387E-12
  0.0000E+00
  1.3351E-12
  2.6701E-12
  1.6948E-08
  1.6948E-08
  1.6947E-08
  1.6948E-08
  1.6948E-08
  1.6948E-08
  1.6947E-08
  1.6948E-08
  1.6948E-08
  6.7783E-08
  6.7780E-08
  6.7777E-08
  6.7786E-08
  6.7783E-08
  6.7780E-08
  6.7789E-08
  6.7786E-08
  6.7783E-08
  2.5419E-07
  2.5418E-07
  2.5417E-07
  2.5420E-07
  2.5419E-07
  2.5418E-07
  2.5421E-07
  2.5420E-07
  2.5419E-07
  9.8287E-07
  9.8284E-07
  9.8281E-07
  9.8290E-07
  9.8287E-07
  9.8284E-07
  9.8293E-07
  9.8290E-07
  9.8287E-07
  3.6263E-06
  3.6263E-06
  3.6263E-06
  3.6264E-06
  3.6263E-06
  3.6263E-06
  3.6264E-06
  3.6264E-06
  3.6263E-06
  1.3418E-05
  1.3418E-05
  1.3418E-05
  1.3418E-05
  1.3418E-05
  1.3418E-05
  1.3418E-05
  1.3418E-05
  1.3418E-05
  5.0032E-05
  5.0032E-05
  5.0032E-05
  5.0032E-05
  5.0032E-05
  5.0032E-05
  5.0032E-05
  5.0032E-05
  5.0032E-05
  1.8678E-04
  1.8678E-04
  1.8678E-04
  1.8678E-04
  1.8678E-04
  1.8678E-04
  1.8678E-04
  1.8678E-04
  1.8678E-04
  6.9724E-04
  6.9724E-04
  6.9724E-04
  6.9724E-04
  6.9724E-04
  6.9724E-04
  6.9724E-04
  6.9724E-04
  6.9724E-04
  2.6026E-03
  2.6026E-03
  2.6026E-03
  2.6026E-03
  2.6026E-03
  2.6026E-03
  2.6026E-03
  2.6026E-03
  2.6026E-03
  9.7146E-03
  9.7146E-03
  9.7146E-03
  9.7146E-03
  9.7146E-03
  9.7146E-03
  9.7146E-03
  9.7146E-03
  9.7146E-03
  3.6262E-02
  3.6262E-02
  3.6262E-02
  3.6262E-02
  3.6262E-02
  3.6262E-02
  3.6262E-02
  3.6262E-02
  3.6262E-02
  1.3534E-01
  1.3534E-01
  1.3534E-01
  1.3534E-01
  1.3534E-01
  1.3534E-01
  1.3534E-01
  1.3534E-01
  1.3534E-01
  2.1349E-01
  2.1349E-01
  2.1349E-01
  2.1349E-01
  2.1349E-01
  2.1349E-01
  2.1349E-01
  2.1349E-01
  2.1349E-01
   1.1100E-02
  6.7599E-16
  9.0464E-16
  1.1333E-15
  3.3800E-16
  6.1625E-16
  8.9450E-16
  0.0000E+00
  3.2786E-16
  6.5571E-16
  2.0090E-15
  2.7113E-15
  3.4136E-15
  1.0045E-15
  1.8545E-15
  2.7045E-15
  0.0000E+00
  9.9773E-16
  1.9955E-15
  8.0247E-15
  1.0859E-14
  1.3693E-14
  4.0123E-15
  7.4325E-15
  1.0853E-14
  0.0000E+00
  4.0062E-15
  8.0124E-15
  3.0089E-14
  4.0733E-14
  5.1377E-14
  1.5044E-14
  2.7885E-14
  4.0726E-14
  0.0000E+00
  1.5038E-14
  3.0076E-14
  1.7408E-13
  2.0631E-13
  2.3854E-13
  8.7039E-14
  1.4667E-13
  2.0631E-13
  0.0000E+00
  8.7037E-14
  1.7407E-13
  7.4372E-13
  8.4767E-13
  9.5163E-13
  3.7186E-13
  6.0977E-13
  8.4768E-13
  0.0000E+00
  3.7187E-13
  7.4373E-13
  2.7907E-12
  3.1722E-12
  3.5536E-12
  1.3953E-12
  2.2837E-12
  3.1722E-12
  0.0000E+00
  1.3953E-12
  2.7907E-12
  1.7258E-08
  1.7257E-08
  1.7257E-08
  1.7257E-08
  1.7257E-08
  1.7257E-08
  1.7257E-08
  1.7257E-08
  1.7258E-08
  6.9021E-08
  6.9018E-08
  6.9015E-08
  6.9024E-08
  6.9021E-08
  6.9018E-08
  6.9027E-08
  6.9024E-08
  6.9021E-08
  2.5883E-07
  2.5882E-07
  2.5881E-07
  2.5884E-07
  2.5883E-07
  2.5882E-07
  2.5885E-07
  2.5884E-07
  2.5883E-07
  1.0008E-06
  1.0008E-06
  1.0008E-06
  1.0009E-06
  1.0008E-06
  1.0008E-06
  1.0009E-06
  1.0009E-06
  1.0008E-06
  3.6926E-06
  3.6925E-06
  3.6925E-06
  3.6926E-06
  3.6926E-06
  3.6925E-06
  3.6926E-06
  3.6926E-06
  3.6926E-06
  1.3663E-05
  1.3663E-05
  1.3663E-05
  1.3663E-05
  1.3663E-05
  1.3663E-05
  1.3663E-05
  1.3663E-05
  1.3663E-05
  5.0945E-05
  5.0945E-05
  5.0945E-05
  5.0945E-05
  5.0945E-05
  5.0945E-05
  5.0945E-05
  5.0945E-05
  5.0945E-05
  1.9019E-04
  1.9019E-04
  1.9019E-04
  1.9019E-04
  1.9019E-04
  1.9019E-04
  1.9019E-04
  1.9019E-04
  1.9019E-04
  7.0997E-04
  7.0997E-04
  7.0997E-04
  7.0997E-04
  7.0997E-04
  7.0997E-04
  7.0997E-04
  7.0997E-04
  7.0997E-04
  2.6501E-03
  2.6501E-03
  2.6501E-03
  2.6501E-03
  2.6501E-03
  2.6501E-03
  2.6501E-03
  2.6501E-03
  2.6501E-03
  9.8919E-03
  9.8919E-03
  9.8919E-03
  9.8919E-03
  9.8919E-03
  9.8919E-03
  9.8919E-03
  9.8919E-03
  9.8919E-03
  3.6924E-02
  3.6924E-02
  3.6924E-02
  3.6924E-02
  3.6924E-02
  3.6924E-02
  3.6924E-02
  3.6924E-02
  3.6924E-02
  1.3782E-01
  1.3782E-01
  1.3782E-01
  1.3782E-01
  1.3782E-01
  1.3782E-01
  1.3782E-01
  1.3782E-01
  1.3782E-01
  2.1739E-01
  2.1739E-01
  2.1739E-01
  2.1739E-01
  2.1739E-01
  2.1739E-01
  2.1739E-01
  2.1739E-01
  2.1739E-01
   1.1200E-02
  7.0054E-16
  9.3768E-16
  1.1748E-15
  3.5027E-16
  6.3881E-16
  9.2735E-16
  0.0000E+00
  3.3994E-16
  6.7989E-16
  2.0823E-15
  2.8103E-15
  3.5384E-15
  1.0411E-15
  1.9223E-15
  2.8035E-15
  0.0000E+00
  1.0343E-15
  2.0685E-15
  8.3177E-15
  1.1255E-14
  1.4193E-14
  4.1589E-15
  7.7039E-15
  1.1249E-14
  0.0000E+00
  4.1526E-15
  8.3052E-15
  6.5875E-14
  7.4075E-14
  8.2276E-14
  3.2938E-14
  5.3503E-14
  7.4069E-14
  0.0000E+00
  3.2932E-14
  6.5863E-14
  2.3924E-13
  2.6542E-13
  2.9159E-13
  1.1962E-13
  1.9252E-13
  2.6542E-13
  0.0000E+00
  1.1962E-13
  2.3924E-13
  7.8364E-13
  8.8796E-13
  9.9227E-13
  3.9182E-13
  6.3989E-13
  8.8796E-13
  0.0000E+00
  3.9183E-13
  7.8365E-13
  2.8396E-12
  3.2395E-12
  3.6395E-12
  1.4198E-12
  2.3297E-12
  3.2395E-12
  0.0000E+00
  1.4198E-12
  2.8396E-12
  1.7570E-08
  1.7570E-08
  1.7569E-08
  1.7569E-08
  1.7569E-08
  1.7570E-08
  1.7569E-08
  1.7569E-08
  1.7570E-08
  7.0270E-08
  7.0267E-08
  7.0264E-08
  7.0273E-08
  7.0270E-08
  7.0267E-08
  7.0276E-08
  7.0273E-08
  7.0270E-08
  2.6351E-07
  2.6350E-07
  2.6349E-07
  2.6352E-07
  2.6351E-07
  2.6350E-07
  2.6353E-07
  2.6352E-07
  2.6351E-07
  1.0189E-06
  1.0189E-06
  1.0189E-06
  1.0190E-06
  1.0189E-06
  1.0189E-06
  1.0190E-06
  1.0190E-06
  1.0189E-06
  3.7594E-06
  3.7593E-06
  3.7593E-06
  3.7594E-06
  3.7594E-06
  3.7593E-06
  3.7594E-06
  3.7594E-06
  3.7594E-06
  1.3910E-05
  1.3910E-05
  1.3910E-05
  1.3910E-05
  1.3910E-05
  1.3910E-05
  1.3910E-05
  1.3910E-05
  1.3910E-05
  5.1866E-05
  5.1866E-05
  5.1866E-05
  5.1866E-05
  5.1866E-05
  5.1866E-05
  5.1866E-05
  5.1866E-05
  5.1866E-05
  1.9363E-04
  1.9363E-04
  1.9363E-04
  1.9363E-04
  1.9363E-04
  1.9363E-04
  1.9363E-04
  1.9363E-04
  1.9363E-04
  7.2281E-04
  7.2281E-04
  7.2281E-04
  7.2281E-04
  7.2281E-04
  7.2281E-04
  7.2281E-04
  7.2281E-04
  7.2281E-04
  2.6980E-03
  2.6980E-03
  2.6980E-03
  2.6980E-03
  2.6980E-03
  2.6980E-03
  2.6980E-03
  2.6980E-03
  2.6980E-03
  1.0071E-02
  1.0071E-02
  1.0071E-02
  1.0071E-02
  1.0071E-02
  1.0071E-02
  1.0071E-02
  1.0071E-02
  1.0071E-02
  3.7592E-02
  3.7592E-02
  3.7592E-02
  3.7592E-02
  3.7592E-02
  3.7592E-02
  3.7592E-02
  3.7592E-02
  3.7592E-02
  1.4031E-01
  1.4031E-01
  1.4031E-01
  1.4031E-01
  1.4031E-01
  1.4031E-01
  1.4031E-01
  1.4031E-01
  1.4031E-01
  2.2132E-01
  2.2132E-01
  2.2132E-01
  2.2132E-01
  2.2132E-01
  2.2132E-01
  2.2132E-01
  2.2132E-01
  2.2132E-01
   1.1300E-02
  7.2576E-16
  9.7161E-16
  1.2175E-15
  3.6288E-16
  6.6199E-16
  9.6110E-16
  0.0000E+00
  3.5236E-16
  7.0472E-16
  2.1576E-15
  2.9121E-15
  3.6666E-15
  1.0788E-15
  1.9919E-15
  2.9051E-15
  0.0000E+00
  1.0718E-15
  2.1436E-15
  8.6187E-15
  1.1663E-14
  1.4707E-14
  4.3093E-15
  7.9828E-15
  1.1656E-14
  0.0000E+00
  4.3030E-15
  8.6059E-15
  6.6780E-14
  7.5321E-14
  8.3862E-14
  3.3390E-14
  5.4352E-14
  7.5314E-14
  0.0000E+00
  3.3384E-14
  6.6767E-14
  2.4263E-13
  2.7010E-13
  2.9758E-13
  1.2131E-13
  1.9571E-13
  2.7010E-13
  0.0000E+00
  1.2131E-13
  2.4263E-13
  7.9703E-13
  9.0642E-13
  1.0158E-12
  3.9852E-13
  6.5247E-13
  9.0643E-13
  0.0000E+00
  3.9852E-13
  7.9705E-13
  2.9631E-12
  3.3770E-12
  3.7909E-12
  1.4815E-12
  2.4293E-12
  3.3770E-12
  0.0000E+00
  1.4816E-12
  2.9631E-12
  1.7885E-08
  1.7885E-08
  1.7884E-08
  1.7885E-08
  1.7885E-08
  1.7885E-08
  1.7884E-08
  1.7885E-08
  1.7885E-08
  7.1530E-08
  7.1527E-08
  7.1524E-08
  7.1533E-08
  7.1530E-08
  7.1527E-08
  7.1536E-08
  7.1533E-08
  7.1530E-08
  2.6824E-07
  2.6823E-07
  2.6822E-07
  2.6825E-07
  2.6824E-07
  2.6823E-07
  2.6826E-07
  2.6825E-07
  2.6824E-07
  1.0372E-06
  1.0372E-06
  1.0371E-06
  1.0372E-06
  1.0372E-06
  1.0372E-06
  1.0373E-06
  1.0372E-06
  1.0372E-06
  3.8268E-06
  3.8268E-06
  3.8267E-06
  3.8268E-06
  3.8268E-06
  3.8268E-06
  3.8269E-06
  3.8268E-06
  3.8268E-06
  1.4160E-05
  1.4160E-05
  1.4159E-05
  1.4160E-05
  1.4160E-05
  1.4160E-05
  1.4160E-05
  1.4160E-05
  1.4160E-05
  5.2795E-05
  5.2795E-05
  5.2795E-05
  5.2795E-05
  5.2795E-05
  5.2795E-05
  5.2795E-05
  5.2795E-05
  5.2795E-05
  1.9710E-04
  1.9710E-04
  1.9710E-04
  1.9710E-04
  1.9710E-04
  1.9710E-04
  1.9710E-04
  1.9710E-04
  1.9710E-04
  7.3576E-04
  7.3576E-04
  7.3576E-04
  7.3576E-04
  7.3576E-04
  7.3576E-04
  7.3576E-04
  7.3576E-04
  7.3576E-04
  2.7464E-03
  2.7464E-03
  2.7464E-03
  2.7464E-03
  2.7464E-03
  2.7464E-03
  2.7464E-03
  2.7464E-03
  2.7464E-03
  1.0251E-02
  1.0251E-02
  1.0251E-02
  1.0251E-02
  1.0251E-02
  1.0251E-02
  1.0251E-02
  1.0251E-02
  1.0251E-02
  3.8266E-02
  3.8266E-02
  3.8266E-02
  3.8266E-02
  3.8266E-02
  3.8266E-02
  3.8266E-02
  3.8266E-02
  3.8266E-02
  1.4283E-01
  1.4283E-01
  1.4283E-01
  1.4283E-01
  1.4283E-01
  1.4283E-01
  1.4283E-01
  1.4283E-01
  1.4283E-01
  2.2529E-01
  2.2529E-01
  2.2529E-01
  2.2529E-01
  2.2529E-01
  2.2529E-01
  2.2529E-01
  2.2529E-01
  2.2529E-01
   1.1400E-02
  7.5165E-16
  1.0065E-15
  1.2613E-15
  3.7582E-16
  6.8579E-16
  9.9575E-16
  0.0000E+00
  3.6512E-16
  7.3023E-16
  2.2349E-15
  3.0166E-15
  3.7983E-15
  1.1174E-15
  2.0635E-15
  3.0095E-15
  0.0000E+00
  1.1103E-15
  2.2206E-15
  8.9278E-15
  1.2081E-14
  1.5234E-14
  4.4639E-15
  8.2692E-15
  1.2074E-14
  0.0000E+00
  4.4574E-15
  8.9148E-15
  6.7715E-14
  7.6608E-14
  8.5501E-14
  3.3857E-14
  5.5229E-14
  7.6601E-14
  0.0000E+00
  3.3851E-14
  6.7702E-14
  2.4614E-13
  2.7496E-13
  3.0379E-13
  1.2307E-13
  1.9902E-13
  2.7496E-13
  0.0000E+00
  1.2307E-13
  2.4614E-13
  8.4735E-13
  9.5941E-13
  1.0715E-12
  4.2367E-13
  6.9155E-13
  9.5942E-13
  0.0000E+00
  4.2368E-13
  8.4736E-13
  3.0783E-12
  3.5046E-12
  3.9309E-12
  1.5392E-12
  2.5219E-12
  3.5046E-12
  0.0000E+00
  1.5392E-12
  3.0783E-12
  1.8203E-08
  1.8203E-08
  1.8202E-08
  1.8203E-08
  1.8203E-08
  1.8203E-08
  1.8202E-08
  1.8203E-08
  1.8203E-08
  7.2802E-08
  7.2799E-08
  7.2795E-08
  7.2805E-08
  7.2802E-08
  7.2799E-08
  7.2808E-08
  7.2805E-08
  7.2802E-08
  2.7301E-07
  2.7300E-07
  2.7299E-07
  2.7302E-07
  2.7301E-07
  2.7300E-07
  2.7303E-07
  2.7302E-07
  2.7301E-07
  1.0556E-06
  1.0556E-06
  1.0556E-06
  1.0557E-06
  1.0556E-06
  1.0556E-06
  1.0557E-06
  1.0557E-06
  1.0556E-06
  3.8948E-06
  3.8948E-06
  3.8947E-06
  3.8948E-06
  3.8948E-06
  3.8948E-06
  3.8949E-06
  3.8948E-06
  3.8948E-06
  1.4411E-05
  1.4411E-05
  1.4411E-05
  1.4411E-05
  1.4411E-05
  1.4411E-05
  1.4411E-05
  1.4411E-05
  1.4411E-05
  5.3733E-05
  5.3733E-05
  5.3733E-05
  5.3733E-05
  5.3733E-05
  5.3733E-05
  5.3733E-05
  5.3733E-05
  5.3733E-05
  2.0060E-04
  2.0060E-04
  2.0060E-04
  2.0060E-04
  2.0060E-04
  2.0060E-04
  2.0060E-04
  2.0060E-04
  2.0060E-04
  7.4883E-04
  7.4883E-04
  7.4883E-04
  7.4883E-04
  7.4883E-04
  7.4883E-04
  7.4883E-04
  7.4883E-04
  7.4883E-04
  2.7952E-03
  2.7952E-03
  2.7952E-03
  2.7952E-03
  2.7952E-03
  2.7952E-03
  2.7952E-03
  2.7952E-03
  2.7952E-03
  1.0434E-02
  1.0434E-02
  1.0434E-02
  1.0434E-02
  1.0434E-02
  1.0434E-02
  1.0434E-02
  1.0434E-02
  1.0434E-02
  3.8946E-02
  3.8946E-02
  3.8946E-02
  3.8946E-02
  3.8946E-02
  3.8946E-02
  3.8946E-02
  3.8946E-02
  3.8946E-02
  1.4536E-01
  1.4536E-01
  1.4536E-01
  1.4536E-01
  1.4536E-01
  1.4536E-01
  1.4536E-01
  1.4536E-01
  1.4536E-01
  2.2929E-01
  2.2929E-01
  2.2929E-01
  2.2929E-01
  2.2929E-01
  2.2929E-01
  2.2929E-01
  2.2929E-01
  2.2929E-01
   1.1500E-02
  7.7822E-16
  1.0422E-15
  1.3063E-15
  3.8911E-16
  7.1022E-16
  1.0313E-15
  0.0000E+00
  3.7821E-16
  7.5642E-16
  2.3143E-15
  3.1239E-15
  3.9335E-15
  1.1571E-15
  2.1369E-15
  3.1166E-15
  0.0000E+00
  1.1499E-15
  2.2998E-15
  9.2451E-15
  1.2510E-14
  1.5776E-14
  4.6225E-15
  8.5631E-15
  1.2504E-14
  0.0000E+00
  4.6159E-15
  9.2318E-15
  6.8681E-14
  7.7937E-14
  8.7194E-14
  3.4340E-14
  5.6136E-14
  7.7931E-14
  0.0000E+00
  3.4334E-14
  6.8668E-14
  2.4978E-13
  2.8000E-13
  3.1022E-13
  1.2489E-13
  2.0244E-13
  2.8000E-13
  0.0000E+00
  1.2489E-13
  2.4978E-13
  8.6141E-13
  9.7881E-13
  1.0962E-12
  4.3071E-13
  7.0476E-13
  9.7881E-13
  0.0000E+00
  4.3071E-13
  8.6143E-13
  3.2044E-12
  3.6456E-12
  4.0868E-12
  1.6022E-12
  2.6239E-12
  3.6456E-12
  0.0000E+00
  1.6022E-12
  3.2044E-12
  1.8524E-08
  1.8523E-08
  1.8523E-08
  1.8523E-08
  1.8523E-08
  1.8523E-08
  1.8523E-08
  1.8523E-08
  1.8524E-08
  7.4084E-08
  7.4081E-08
  7.4078E-08
  7.4088E-08
  7.4084E-08
  7.4081E-08
  7.4091E-08
  7.4088E-08
  7.4084E-08
  2.7782E-07
  2.7781E-07
  2.7780E-07
  2.7783E-07
  2.7782E-07
  2.7781E-07
  2.7784E-07
  2.7783E-07
  2.7782E-07
  1.0742E-06
  1.0742E-06
  1.0742E-06
  1.0743E-06
  1.0742E-06
  1.0742E-06
  1.0743E-06
  1.0743E-06
  1.0742E-06
  3.9634E-06
  3.9634E-06
  3.9633E-06
  3.9634E-06
  3.9634E-06
  3.9634E-06
  3.9635E-06
  3.9634E-06
  3.9634E-06
  1.4665E-05
  1.4665E-05
  1.4665E-05
  1.4665E-05
  1.4665E-05
  1.4665E-05
  1.4665E-05
  1.4665E-05
  1.4665E-05
  5.4679E-05
  5.4679E-05
  5.4679E-05
  5.4679E-05
  5.4679E-05
  5.4679E-05
  5.4679E-05
  5.4679E-05
  5.4679E-05
  2.0413E-04
  2.0413E-04
  2.0413E-04
  2.0413E-04
  2.0413E-04
  2.0413E-04
  2.0413E-04
  2.0413E-04
  2.0413E-04
  7.6201E-04
  7.6201E-04
  7.6201E-04
  7.6201E-04
  7.6201E-04
  7.6201E-04
  7.6201E-04
  7.6201E-04
  7.6201E-04
  2.8444E-03
  2.8444E-03
  2.8444E-03
  2.8444E-03
  2.8444E-03
  2.8444E-03
  2.8444E-03
  2.8444E-03
  2.8444E-03
  1.0617E-02
  1.0617E-02
  1.0617E-02
  1.0617E-02
  1.0617E-02
  1.0617E-02
  1.0617E-02
  1.0617E-02
  1.0617E-02
  3.9632E-02
  3.9632E-02
  3.9632E-02
  3.9632E-02
  3.9632E-02
  3.9632E-02
  3.9632E-02
  3.9632E-02
  3.9632E-02
  1.4793E-01
  1.4793E-01
  1.4793E-01
  1.4793E-01
  1.4793E-01
  1.4793E-01
  1.4793E-01
  1.4793E-01
  1.4793E-01
  2.3333E-01
  2.3333E-01
  2.3333E-01
  2.3333E-01
  2.3333E-01
  2.3333E-01
  2.3333E-01
  2.3333E-01
  2.3333E-01
   1.1600E-02
  8.0550E-16
  1.0790E-15
  1.3524E-15
  4.0275E-16
  7.3531E-16
  1.0679E-15
  0.0000E+00
  3.9166E-16
  7.8331E-16
  2.3957E-15
  3.2340E-15
  4.0723E-15
  1.1979E-15
  2.2123E-15
  3.2266E-15
  0.0000E+00
  1.1905E-15
  2.3810E-15
  9.5707E-15
  1.2951E-14
  1.6332E-14
  4.7854E-15
  8.8649E-15
  1.2944E-14
  0.0000E+00
  4.7786E-15
  9.5573E-15
  6.9679E-14
  7.9311E-14
  8.8943E-14
  3.4839E-14
  5.7072E-14
  7.9304E-14
  0.0000E+00
  3.4833E-14
  6.9666E-14
  2.5355E-13
  2.8521E-13
  3.1687E-13
  1.2677E-13
  2.0599E-13
  2.8521E-13
  0.0000E+00
  1.2677E-13
  2.5355E-13
  8.7597E-13
  9.9886E-13
  1.1218E-12
  4.3799E-13
  7.1843E-13
  9.9887E-13
  0.0000E+00
  4.3799E-13
  8.7598E-13
  3.2588E-12
  3.7206E-12
  4.1823E-12
  1.6294E-12
  2.6750E-12
  3.7206E-12
  0.0000E+00
  1.6294E-12
  3.2588E-12
  1.8847E-08
  1.8847E-08
  1.8847E-08
  1.8847E-08
  1.8847E-08
  1.8847E-08
  1.8846E-08
  1.8847E-08
  1.8847E-08
  7.5378E-08
  7.5375E-08
  7.5371E-08
  7.5382E-08
  7.5378E-08
  7.5375E-08
  7.5385E-08
  7.5382E-08
  7.5378E-08
  2.8267E-07
  2.8266E-07
  2.8265E-07
  2.8268E-07
  2.8267E-07
  2.8266E-07
  2.8269E-07
  2.8268E-07
  2.8267E-07
  1.0930E-06
  1.0930E-06
  1.0929E-06
  1.0930E-06
  1.0930E-06
  1.0930E-06
  1.0931E-06
  1.0930E-06
  1.0930E-06
  4.0326E-06
  4.0326E-06
  4.0325E-06
  4.0326E-06
  4.0326E-06
  4.0326E-06
  4.0327E-06
  4.0326E-06
  4.0326E-06
  1.4921E-05
  1.4921E-05
  1.4921E-05
  1.4921E-05
  1.4921E-05
  1.4921E-05
  1.4921E-05
  1.4921E-05
  1.4921E-05
  5.5633E-05
  5.5633E-05
  5.5633E-05
  5.5633E-05
  5.5633E-05
  5.5633E-05
  5.5633E-05
  5.5633E-05
  5.5633E-05
  2.0769E-04
  2.0769E-04
  2.0769E-04
  2.0769E-04
  2.0769E-04
  2.0769E-04
  2.0769E-04
  2.0769E-04
  2.0769E-04
  7.7531E-04
  7.7531E-04
  7.7531E-04
  7.7531E-04
  7.7531E-04
  7.7531E-04
  7.7531E-04
  7.7531E-04
  7.7531E-04
  2.8941E-03
  2.8941E-03
  2.8941E-03
  2.8941E-03
  2.8941E-03
  2.8941E-03
  2.8941E-03
  2.8941E-03
  2.8941E-03
  1.0803E-02
  1.0803E-02
  1.0803E-02
  1.0803E-02
  1.0803E-02
  1.0803E-02
  1.0803E-02
  1.0803E-02
  1.0803E-02
  4.0324E-02
  4.0324E-02
  4.0324E-02
  4.0324E-02
  4.0324E-02
  4.0324E-02
  4.0324E-02
  4.0324E-02
  4.0324E-02
  1.5051E-01
  1.5051E-01
  1.5051E-01
  1.5051E-01
  1.5051E-01
  1.5051E-01
  1.5051E-01
  1.5051E-01
  1.5051E-01
  2.3741E-01
  2.3741E-01
  2.3741E-01
  2.3741E-01
  2.3741E-01
  2.3741E-01
  2.3741E-01
  2.3741E-01
  2.3741E-01
   1.1700E-02
  8.3349E-16
  1.1166E-15
  1.3998E-15
  4.1674E-16
  7.6105E-16
  1.1054E-15
  0.0000E+00
  4.0545E-16
  8.1091E-16
  2.4793E-15
  3.3470E-15
  4.2147E-15
  1.2397E-15
  2.2896E-15
  3.3395E-15
  0.0000E+00
  1.2322E-15
  2.4643E-15
  9.9050E-15
  1.3403E-14
  1.6902E-14
  4.9525E-15
  9.1745E-15
  1.3397E-14
  0.0000E+00
  4.9456E-15
  9.8913E-15
  7.0709E-14
  8.0729E-14
  9.0749E-14
  3.5355E-14
  5.8039E-14
  8.0722E-14
  0.0000E+00
  3.5348E-14
  7.0696E-14
  2.5746E-13
  2.9060E-13
  3.2375E-13
  1.2873E-13
  2.0966E-13
  2.9060E-13
  0.0000E+00
  1.2873E-13
  2.5745E-13
  8.9103E-13
  1.0196E-12
  1.1482E-12
  4.4551E-13
  7.3256E-13
  1.0196E-12
  0.0000E+00
  4.4552E-13
  8.9104E-13
  3.3879E-12
  3.8658E-12
  4.3436E-12
  1.6940E-12
  2.7799E-12
  3.8658E-12
  0.0000E+00
  1.6940E-12
  3.3880E-12
  1.9174E-08
  1.9173E-08
  1.9173E-08
  1.9173E-08
  1.9173E-08
  1.9173E-08
  1.9173E-08
  1.9173E-08
  1.9174E-08
  7.6683E-08
  7.6680E-08
  7.6676E-08
  7.6687E-08
  7.6683E-08
  7.6680E-08
  7.6691E-08
  7.6687E-08
  7.6683E-08
  2.8757E-07
  2.8755E-07
  2.8754E-07
  2.8758E-07
  2.8757E-07
  2.8755E-07
  2.8759E-07
  2.8758E-07
  2.8757E-07
  1.1119E-06
  1.1119E-06
  1.1119E-06
  1.1120E-06
  1.1119E-06
  1.1119E-06
  1.1120E-06
  1.1120E-06
  1.1119E-06
  4.1024E-06
  4.1024E-06
  4.1023E-06
  4.1024E-06
  4.1024E-06
  4.1024E-06
  4.1024E-06
  4.1024E-06
  4.1024E-06
  1.5179E-05
  1.5179E-05
  1.5179E-05
  1.5179E-05
  1.5179E-05
  1.5179E-05
  1.5179E-05
  1.5179E-05
  1.5179E-05
  5.6595E-05
  5.6595E-05
  5.6595E-05
  5.6595E-05
  5.6595E-05
  5.6595E-05
  5.6595E-05
  5.6595E-05
  5.6595E-05
  2.1129E-04
  2.1129E-04
  2.1129E-04
  2.1129E-04
  2.1129E-04
  2.1129E-04
  2.1129E-04
  2.1129E-04
  2.1129E-04
  7.8873E-04
  7.8873E-04
  7.8873E-04
  7.8873E-04
  7.8873E-04
  7.8873E-04
  7.8873E-04
  7.8873E-04
  7.8873E-04
  2.9441E-03
  2.9441E-03
  2.9441E-03
  2.9441E-03
  2.9441E-03
  2.9441E-03
  2.9441E-03
  2.9441E-03
  2.9441E-03
  1.0990E-02
  1.0990E-02
  1.0990E-02
  1.0990E-02
  1.0990E-02
  1.0990E-02
  1.0990E-02
  1.0990E-02
  1.0990E-02
  4.1022E-02
  4.1022E-02
  4.1022E-02
  4.1022E-02
  4.1022E-02
  4.1022E-02
  4.1022E-02
  4.1022E-02
  4.1022E-02
  1.5311E-01
  1.5311E-01
  1.5311E-01
  1.5311E-01
  1.5311E-01
  1.5311E-01
  1.5311E-01
  1.5311E-01
  1.5311E-01
  2.4152E-01
  2.4152E-01
  2.4152E-01
  2.4152E-01
  2.4152E-01
  2.4152E-01
  2.4152E-01
  2.4152E-01
  2.4152E-01
   1.1800E-02
  8.6220E-16
  1.1553E-15
  1.4484E-15
  4.3110E-16
  7.8746E-16
  1.1438E-15
  0.0000E+00
  4.1961E-16
  8.3922E-16
  2.5651E-15
  3.4630E-15
  4.3609E-15
  1.2826E-15
  2.3690E-15
  3.4553E-15
  0.0000E+00
  1.2749E-15
  2.5498E-15
  1.0248E-14
  1.3868E-14
  1.7487E-14
  5.1239E-15
  9.4922E-15
  1.3861E-14
  0.0000E+00
  5.1170E-15
  1.0234E-14
  7.1774E-14
  8.2193E-14
  9.2612E-14
  3.5887E-14
  5.9036E-14
  8.2186E-14
  0.0000E+00
  3.5880E-14
  7.1760E-14
  2.6150E-13
  2.9618E-13
  3.3086E-13
  1.3075E-13
  2.1346E-13
  2.9618E-13
  0.0000E+00
  1.3075E-13
  2.6150E-13
  9.4294E-13
  1.0748E-12
  1.2066E-12
  4.7147E-13
  7.7312E-13
  1.0748E-12
  0.0000E+00
  4.7147E-13
  9.4295E-13
  3.5088E-12
  4.0011E-12
  4.4935E-12
  1.7544E-12
  2.8778E-12
  4.0011E-12
  0.0000E+00
  1.7544E-12
  3.5088E-12
  1.9503E-08
  1.9502E-08
  1.9502E-08
  1.9502E-08
  1.9502E-08
  1.9502E-08
  1.9502E-08
  1.9502E-08
  1.9503E-08
  7.8000E-08
  7.7996E-08
  7.7992E-08
  7.8003E-08
  7.8000E-08
  7.7996E-08
  7.8007E-08
  7.8003E-08
  7.8000E-08
  2.9250E-07
  2.9249E-07
  2.9248E-07
  2.9251E-07
  2.9250E-07
  2.9249E-07
  2.9253E-07
  2.9251E-07
  2.9250E-07
  1.1310E-06
  1.1310E-06
  1.1309E-06
  1.1311E-06
  1.1310E-06
  1.1310E-06
  1.1311E-06
  1.1311E-06
  1.1310E-06
  4.1728E-06
  4.1727E-06
  4.1727E-06
  4.1728E-06
  4.1728E-06
  4.1727E-06
  4.1728E-06
  4.1728E-06
  4.1728E-06
  1.5439E-05
  1.5439E-05
  1.5439E-05
  1.5439E-05
  1.5439E-05
  1.5439E-05
  1.5439E-05
  1.5439E-05
  1.5439E-05
  5.7566E-05
  5.7566E-05
  5.7566E-05
  5.7566E-05
  5.7566E-05
  5.7566E-05
  5.7566E-05
  5.7566E-05
  5.7566E-05
  2.1491E-04
  2.1491E-04
  2.1491E-04
  2.1491E-04
  2.1491E-04
  2.1491E-04
  2.1491E-04
  2.1491E-04
  2.1491E-04
  8.0225E-04
  8.0225E-04
  8.0225E-04
  8.0225E-04
  8.0225E-04
  8.0225E-04
  8.0225E-04
  8.0225E-04
  8.0225E-04
  2.9946E-03
  2.9946E-03
  2.9946E-03
  2.9946E-03
  2.9946E-03
  2.9946E-03
  2.9946E-03
  2.9946E-03
  2.9946E-03
  1.1178E-02
  1.1178E-02
  1.1178E-02
  1.1178E-02
  1.1178E-02
  1.1178E-02
  1.1178E-02
  1.1178E-02
  1.1178E-02
  4.1726E-02
  4.1726E-02
  4.1726E-02
  4.1726E-02
  4.1726E-02
  4.1726E-02
  4.1726E-02
  4.1726E-02
  4.1726E-02
  1.5574E-01
  1.5574E-01
  1.5574E-01
  1.5574E-01
  1.5574E-01
  1.5574E-01
  1.5574E-01
  1.5574E-01
  1.5574E-01
  2.4566E-01
  2.4566E-01
  2.4566E-01
  2.4566E-01
  2.4566E-01
  2.4566E-01
  2.4566E-01
  2.4566E-01
  2.4566E-01
   1.1900E-02
  8.9165E-16
  1.1950E-15
  1.4983E-15
  4.4583E-16
  8.1455E-16
  1.1833E-15
  0.0000E+00
  4.3414E-16
  8.6828E-16
  2.6531E-15
  3.5819E-15
  4.5107E-15
  1.3265E-15
  2.4503E-15
  3.5741E-15
  0.0000E+00
  1.3188E-15
  2.6376E-15
  1.0600E-14
  1.4344E-14
  1.8087E-14
  5.2998E-15
  9.8181E-15
  1.4336E-14
  0.0000E+00
  5.2927E-15
  1.0585E-14
  7.2872E-14
  8.3703E-14
  9.4535E-14
  3.6436E-14
  6.0066E-14
  8.3696E-14
  0.0000E+00
  3.6429E-14
  7.2858E-14
  2.6568E-13
  3.0194E-13
  3.3820E-13
  1.3284E-13
  2.1739E-13
  3.0194E-13
  0.0000E+00
  1.3284E-13
  2.6568E-13
  9.5874E-13
  1.0965E-12
  1.2343E-12
  4.7937E-13
  7.8795E-13
  1.0965E-12
  0.0000E+00
  4.7938E-13
  9.5875E-13
  3.6407E-12
  4.1501E-12
  4.6596E-12
  1.8203E-12
  2.9852E-12
  4.1501E-12
  0.0000E+00
  1.8203E-12
  3.6407E-12
  1.9835E-08
  1.9834E-08
  1.9834E-08
  1.9834E-08
  1.9834E-08
  1.9834E-08
  1.9834E-08
  1.9834E-08
  1.9835E-08
  7.9327E-08
  7.9323E-08
  7.9320E-08
  7.9331E-08
  7.9327E-08
  7.9323E-08
  7.9335E-08
  7.9331E-08
  7.9327E-08
  2.9748E-07
  2.9747E-07
  2.9745E-07
  2.9749E-07
  2.9748E-07
  2.9747E-07
  2.9751E-07
  2.9749E-07
  2.9748E-07
  1.1503E-06
  1.1502E-06
  1.1502E-06
  1.1503E-06
  1.1503E-06
  1.1502E-06
  1.1504E-06
  1.1503E-06
  1.1503E-06
  4.2437E-06
  4.2437E-06
  4.2437E-06
  4.2438E-06
  4.2437E-06
  4.2437E-06
  4.2438E-06
  4.2438E-06
  4.2437E-06
  1.5702E-05
  1.5702E-05
  1.5702E-05
  1.5702E-05
  1.5702E-05
  1.5702E-05
  1.5702E-05
  1.5702E-05
  1.5702E-05
  5.8544E-05
  5.8544E-05
  5.8544E-05
  5.8544E-05
  5.8544E-05
  5.8544E-05
  5.8544E-05
  5.8544E-05
  5.8544E-05
  2.1856E-04
  2.1856E-04
  2.1856E-04
  2.1856E-04
  2.1856E-04
  2.1856E-04
  2.1856E-04
  2.1856E-04
  2.1856E-04
  8.1590E-04
  8.1590E-04
  8.1590E-04
  8.1590E-04
  8.1590E-04
  8.1590E-04
  8.1590E-04
  8.1590E-04
  8.1590E-04
  3.0456E-03
  3.0456E-03
  3.0456E-03
  3.0456E-03
  3.0456E-03
  3.0456E-03
  3.0456E-03
  3.0456E-03
  3.0456E-03
  1.1368E-02
  1.1368E-02
  1.1368E-02
  1.1368E-02
  1.1368E-02
  1.1368E-02
  1.1368E-02
  1.1368E-02
  1.1368E-02
  4.2436E-02
  4.2436E-02
  4.2436E-02
  4.2436E-02
  4.2436E-02
  4.2436E-02
  4.2436E-02
  4.2436E-02
  4.2436E-02
  1.5839E-01
  1.5839E-01
  1.5839E-01
  1.5839E-01
  1.5839E-01
  1.5839E-01
  1.5839E-01
  1.5839E-01
  1.5839E-01
  2.4985E-01
  2.4985E-01
  2.4985E-01
  2.4985E-01
  2.4985E-01
  2.4985E-01
  2.4985E-01
  2.4985E-01
  2.4985E-01
   1.2000E-02
  9.2185E-16
  1.2356E-15
  1.5494E-15
  4.6092E-16
  8.4233E-16
  1.2237E-15
  0.0000E+00
  4.4904E-16
  8.9807E-16
  2.7433E-15
  3.7039E-15
  4.6645E-15
  1.3717E-15
  2.5338E-15
  3.6960E-15
  0.0000E+00
  1.3638E-15
  2.7275E-15
  1.0960E-14
  1.4832E-14
  1.8703E-14
  5.4801E-15
  1.0152E-14
  1.4824E-14
  0.0000E+00
  5.4729E-15
  1.0946E-14
  7.4005E-14
  8.5262E-14
  9.6518E-14
  3.7002E-14
  6.1129E-14
  8.5255E-14
  0.0000E+00
  3.6995E-14
  7.3991E-14
  2.7000E-13
  3.0789E-13
  3.4578E-13
  1.3500E-13
  2.2144E-13
  3.0789E-13
  0.0000E+00
  1.3500E-13
  2.7000E-13
  9.7506E-13
  1.1190E-12
  1.2629E-12
  4.8753E-13
  8.0326E-13
  1.1190E-12
  0.0000E+00
  4.8754E-13
  9.7508E-13
  3.7743E-12
  4.3015E-12
  4.8287E-12
  1.8872E-12
  3.0944E-12
  4.3016E-12
  0.0000E+00
  1.8872E-12
  3.7744E-12
  2.0170E-08
  2.0169E-08
  2.0169E-08
  2.0169E-08
  2.0169E-08
  2.0169E-08
  2.0168E-08
  2.0169E-08
  2.0170E-08
  8.0666E-08
  8.0662E-08
  8.0658E-08
  8.0670E-08
  8.0666E-08
  8.0662E-08
  8.0674E-08
  8.0670E-08
  8.0666E-08
  3.0250E-07
  3.0249E-07
  3.0247E-07
  3.0251E-07
  3.0250E-07
  3.0249E-07
  3.0253E-07
  3.0251E-07
  3.0250E-07
  1.1697E-06
  1.1696E-06
  1.1696E-06
  1.1697E-06
  1.1697E-06
  1.1696E-06
  1.1698E-06
  1.1697E-06
  1.1697E-06
  4.3153E-06
  4.3153E-06
  4.3152E-06
  4.3153E-06
  4.3153E-06
  4.3153E-06
  4.3154E-06
  4.3153E-06
  4.3153E-06
  1.5966E-05
  1.5966E-05
  1.5966E-05
  1.5966E-05
  1.5966E-05
  1.5966E-05
  1.5966E-05
  1.5966E-05
  1.5966E-05
  5.9531E-05
  5.9531E-05
  5.9531E-05
  5.9531E-05
  5.9531E-05
  5.9531E-05
  5.9531E-05
  5.9531E-05
  5.9531E-05
  2.2225E-04
  2.2225E-04
  2.2225E-04
  2.2225E-04
  2.2225E-04
  2.2225E-04
  2.2225E-04
  2.2225E-04
  2.2225E-04
  8.2965E-04
  8.2965E-04
  8.2965E-04
  8.2965E-04
  8.2965E-04
  8.2965E-04
  8.2965E-04
  8.2965E-04
  8.2965E-04
  3.0969E-03
  3.0969E-03
  3.0969E-03
  3.0969E-03
  3.0969E-03
  3.0969E-03
  3.0969E-03
  3.0969E-03
  3.0969E-03
  1.1560E-02
  1.1560E-02
  1.1560E-02
  1.1560E-02
  1.1560E-02
  1.1560E-02
  1.1560E-02
  1.1560E-02
  1.1560E-02
  4.3152E-02
  4.3152E-02
  4.3152E-02
  4.3152E-02
  4.3152E-02
  4.3152E-02
  4.3152E-02
  4.3152E-02
  4.3152E-02
  1.6107E-01
  1.6107E-01
  1.6107E-01
  1.6107E-01
  1.6107E-01
  1.6107E-01
  1.6107E-01
  1.6107E-01
  1.6107E-01
  2.5406E-01
  2.5406E-01
  2.5406E-01
  2.5406E-01
  2.5406E-01
  2.5406E-01
  2.5406E-01
  2.5406E-01
  2.5406E-01
   1.2100E-02
  9.5281E-16
  1.2773E-15
  1.6019E-15
  4.7640E-16
  8.7082E-16
  1.2652E-15
  0.0000E+00
  4.6431E-16
  9.2863E-16
  2.8358E-15
  3.8289E-15
  4.8221E-15
  1.4179E-15
  2.6194E-15
  3.8209E-15
  0.0000E+00
  1.4099E-15
  2.8198E-15
  1.1330E-14
  1.5332E-14
  1.9334E-14
  5.6650E-15
  1.0495E-14
  1.5325E-14
  0.0000E+00
  5.6577E-15
  1.1315E-14
  7.5174E-14
  8.6868E-14
  9.8563E-14
  3.7587E-14
  6.2224E-14
  8.6861E-14
  0.0000E+00
  3.7580E-14
  7.5159E-14
  2.7446E-13
  3.1403E-13
  3.5360E-13
  1.3723E-13
  2.2563E-13
  3.1403E-13
  0.0000E+00
  1.3723E-13
  2.7446E-13
  1.0284E-12
  1.1760E-12
  1.3237E-12
  5.1418E-13
  8.4511E-13
  1.1760E-12
  0.0000E+00
  5.1418E-13
  1.0284E-12
  3.8997E-12
  4.4431E-12
  4.9865E-12
  1.9498E-12
  3.1965E-12
  4.4431E-12
  0.0000E+00
  1.9498E-12
  3.8997E-12
  2.0507E-08
  2.0507E-08
  2.0506E-08
  2.0507E-08
  2.0507E-08
  2.0507E-08
  2.0506E-08
  2.0507E-08
  2.0507E-08
  8.2016E-08
  8.2012E-08
  8.2008E-08
  8.2020E-08
  8.2016E-08
  8.2012E-08
  8.2024E-08
  8.2020E-08
  8.2016E-08
  3.0756E-07
  3.0755E-07
  3.0753E-07
  3.0758E-07
  3.0756E-07
  3.0755E-07
  3.0759E-07
  3.0758E-07
  3.0756E-07
  1.1893E-06
  1.1892E-06
  1.1892E-06
  1.1893E-06
  1.1893E-06
  1.1892E-06
  1.1893E-06
  1.1893E-06
  1.1893E-06
  4.3875E-06
  4.3874E-06
  4.3874E-06
  4.3875E-06
  4.3875E-06
  4.3874E-06
  4.3875E-06
  4.3875E-06
  4.3875E-06
  1.6233E-05
  1.6233E-05
  1.6233E-05
  1.6233E-05
  1.6233E-05
  1.6233E-05
  1.6233E-05
  1.6233E-05
  1.6233E-05
  6.0526E-05
  6.0526E-05
  6.0526E-05
  6.0526E-05
  6.0526E-05
  6.0526E-05
  6.0526E-05
  6.0526E-05
  6.0526E-05
  2.2596E-04
  2.2596E-04
  2.2596E-04
  2.2596E-04
  2.2596E-04
  2.2596E-04
  2.2596E-04
  2.2596E-04
  2.2596E-04
  8.4352E-04
  8.4352E-04
  8.4352E-04
  8.4352E-04
  8.4352E-04
  8.4352E-04
  8.4352E-04
  8.4352E-04
  8.4352E-04
  3.1487E-03
  3.1487E-03
  3.1487E-03
  3.1487E-03
  3.1487E-03
  3.1487E-03
  3.1487E-03
  3.1487E-03
  3.1487E-03
  1.1753E-02
  1.1753E-02
  1.1753E-02
  1.1753E-02
  1.1753E-02
  1.1753E-02
  1.1753E-02
  1.1753E-02
  1.1753E-02
  4.3874E-02
  4.3874E-02
  4.3874E-02
  4.3874E-02
  4.3874E-02
  4.3874E-02
  4.3874E-02
  4.3874E-02
  4.3874E-02
  1.6376E-01
  1.6376E-01
  1.6376E-01
  1.6376E-01
  1.6376E-01
  1.6376E-01
  1.6376E-01
  1.6376E-01
  1.6376E-01
  2.5831E-01
  2.5831E-01
  2.5831E-01
  2.5831E-01
  2.5831E-01
  2.5831E-01
  2.5831E-01
  2.5831E-01
  2.5831E-01
   1.2200E-02
  9.8454E-16
  1.3201E-15
  1.6556E-15
  4.9227E-16
  9.0003E-16
  1.3078E-15
  0.0000E+00
  4.7998E-16
  9.5995E-16
  2.9307E-15
  3.9571E-15
  4.9836E-15
  1.4653E-15
  2.7071E-15
  3.9490E-15
  0.0000E+00
  1.4572E-15
  2.9143E-15
  1.1709E-14
  1.5845E-14
  1.9981E-14
  5.8546E-15
  1.0846E-14
  1.5838E-14
  0.0000E+00
  5.8472E-15
  1.1694E-14
  7.6379E-14
  8.8525E-14
  1.0067E-13
  3.8190E-14
  6.3354E-14
  8.8518E-14
  0.0000E+00
  3.8182E-14
  7.6364E-14
  2.7907E-13
  3.2037E-13
  3.6167E-13
  1.3953E-13
  2.2995E-13
  3.2037E-13
  0.0000E+00
  1.3953E-13
  2.7907E-13
  1.0455E-12
  1.1996E-12
  1.3537E-12
  5.2274E-13
  8.6117E-13
  1.1996E-12
  0.0000E+00
  5.2275E-13
  1.0455E-12
  4.0362E-12
  4.5985E-12
  5.1607E-12
  2.0181E-12
  3.3083E-12
  4.5985E-12
  0.0000E+00
  2.0181E-12
  4.0362E-12
  2.0848E-08
  2.0847E-08
  2.0847E-08
  2.0847E-08
  2.0847E-08
  2.0847E-08
  2.0846E-08
  2.0847E-08
  2.0848E-08
  8.3377E-08
  8.3373E-08
  8.3369E-08
  8.3381E-08
  8.3377E-08
  8.3373E-08
  8.3385E-08
  8.3381E-08
  8.3377E-08
  3.1267E-07
  3.1265E-07
  3.1264E-07
  3.1268E-07
  3.1267E-07
  3.1265E-07
  3.1270E-07
  3.1268E-07
  3.1267E-07
  1.2090E-06
  1.2089E-06
  1.2089E-06
  1.2090E-06
  1.2090E-06
  1.2089E-06
  1.2091E-06
  1.2090E-06
  1.2090E-06
  4.4602E-06
  4.4602E-06
  4.4602E-06
  4.4603E-06
  4.4602E-06
  4.4602E-06
  4.4603E-06
  4.4603E-06
  4.4602E-06
  1.6502E-05
  1.6502E-05
  1.6502E-05
  1.6502E-05
  1.6502E-05
  1.6502E-05
  1.6503E-05
  1.6502E-05
  1.6502E-05
  6.1530E-05
  6.1530E-05
  6.1530E-05
  6.1530E-05
  6.1530E-05
  6.1530E-05
  6.1530E-05
  6.1530E-05
  6.1530E-05
  2.2971E-04
  2.2971E-04
  2.2971E-04
  2.2971E-04
  2.2971E-04
  2.2971E-04
  2.2971E-04
  2.2971E-04
  2.2971E-04
  8.5751E-04
  8.5751E-04
  8.5751E-04
  8.5751E-04
  8.5751E-04
  8.5751E-04
  8.5751E-04
  8.5751E-04
  8.5751E-04
  3.2009E-03
  3.2009E-03
  3.2009E-03
  3.2009E-03
  3.2009E-03
  3.2009E-03
  3.2009E-03
  3.2009E-03
  3.2009E-03
  1.1948E-02
  1.1948E-02
  1.1948E-02
  1.1948E-02
  1.1948E-02
  1.1948E-02
  1.1948E-02
  1.1948E-02
  1.1948E-02
  4.4602E-02
  4.4602E-02
  4.4602E-02
  4.4602E-02
  4.4602E-02
  4.4602E-02
  4.4602E-02
  4.4602E-02
  4.4602E-02
  1.6648E-01
  1.6648E-01
  1.6648E-01
  1.6648E-01
  1.6648E-01
  1.6648E-01
  1.6648E-01
  1.6648E-01
  1.6648E-01
  2.6260E-01
  2.6260E-01
  2.6260E-01
  2.6260E-01
  2.6260E-01
  2.6260E-01
  2.6260E-01
  2.6260E-01
  2.6260E-01
   1.2300E-02
  1.0171E-15
  1.3639E-15
  1.7107E-15
  5.0853E-16
  9.2996E-16
  1.3514E-15
  0.0000E+00
  4.9603E-16
  9.9206E-16
  3.0278E-15
  4.0885E-15
  5.1492E-15
  1.5139E-15
  2.7971E-15
  4.0802E-15
  0.0000E+00
  1.5056E-15
  3.0112E-15
  1.2098E-14
  1.6371E-14
  2.0644E-14
  6.0489E-15
  1.1206E-14
  1.6364E-14
  0.0000E+00
  6.0413E-15
  1.2083E-14
  7.7621E-14
  9.0232E-14
  1.0284E-13
  3.8811E-14
  6.4518E-14
  9.0225E-14
  0.0000E+00
  3.8803E-14
  7.7607E-14
  2.8383E-13
  3.2691E-13
  3.6999E-13
  1.4191E-13
  2.3441E-13
  3.2690E-13
  0.0000E+00
  1.4191E-13
  2.8382E-13
  1.0632E-12
  1.2239E-12
  1.3846E-12
  5.3158E-13
  8.7774E-13
  1.2239E-12
  0.0000E+00
  5.3159E-13
  1.0632E-12
  4.1012E-12
  4.6880E-12
  5.2748E-12
  2.0506E-12
  3.3693E-12
  4.6880E-12
  0.0000E+00
  2.0506E-12
  4.1013E-12
  2.1191E-08
  2.1190E-08
  2.1190E-08
  2.1190E-08
  2.1190E-08
  2.1190E-08
  2.1190E-08
  2.1190E-08
  2.1191E-08
  8.4749E-08
  8.4745E-08
  8.4740E-08
  8.4754E-08
  8.4749E-08
  8.4745E-08
  8.4758E-08
  8.4754E-08
  8.4749E-08
  3.1781E-07
  3.1780E-07
  3.1778E-07
  3.1783E-07
  3.1781E-07
  3.1780E-07
  3.1784E-07
  3.1783E-07
  3.1781E-07
  1.2289E-06
  1.2288E-06
  1.2288E-06
  1.2289E-06
  1.2289E-06
  1.2288E-06
  1.2290E-06
  1.2289E-06
  1.2289E-06
  4.5336E-06
  4.5335E-06
  4.5335E-06
  4.5336E-06
  4.5336E-06
  4.5335E-06
  4.5336E-06
  4.5336E-06
  4.5336E-06
  1.6774E-05
  1.6774E-05
  1.6774E-05
  1.6774E-05
  1.6774E-05
  1.6774E-05
  1.6774E-05
  1.6774E-05
  1.6774E-05
  6.2541E-05
  6.2541E-05
  6.2541E-05
  6.2541E-05
  6.2541E-05
  6.2541E-05
  6.2541E-05
  6.2541E-05
  6.2541E-05
  2.3349E-04
  2.3349E-04
  2.3349E-04
  2.3349E-04
  2.3349E-04
  2.3349E-04
  2.3349E-04
  2.3349E-04
  2.3349E-04
  8.7161E-04
  8.7161E-04
  8.7161E-04
  8.7161E-04
  8.7161E-04
  8.7161E-04
  8.7161E-04
  8.7161E-04
  8.7161E-04
  3.2536E-03
  3.2536E-03
  3.2536E-03
  3.2536E-03
  3.2536E-03
  3.2536E-03
  3.2536E-03
  3.2536E-03
  3.2536E-03
  1.2145E-02
  1.2145E-02
  1.2145E-02
  1.2145E-02
  1.2145E-02
  1.2145E-02
  1.2145E-02
  1.2145E-02
  1.2145E-02
  4.5336E-02
  4.5336E-02
  4.5336E-02
  4.5336E-02
  4.5336E-02
  4.5336E-02
  4.5336E-02
  4.5336E-02
  4.5336E-02
  1.6922E-01
  1.6922E-01
  1.6922E-01
  1.6922E-01
  1.6922E-01
  1.6922E-01
  1.6922E-01
  1.6922E-01
  1.6922E-01
  2.6692E-01
  2.6692E-01
  2.6692E-01
  2.6692E-01
  2.6692E-01
  2.6692E-01
  2.6692E-01
  2.6692E-01
  2.6692E-01
   1.2400E-02
  1.0504E-15
  1.4088E-15
  1.7672E-15
  5.2519E-16
  9.6063E-16
  1.3961E-15
  0.0000E+00
  5.1248E-16
  1.0250E-15
  3.1274E-15
  4.2232E-15
  5.3189E-15
  1.5637E-15
  2.8892E-15
  4.2147E-15
  0.0000E+00
  1.5553E-15
  3.1105E-15
  1.2496E-14
  1.6910E-14
  2.1324E-14
  6.2479E-15
  1.1575E-14
  1.6902E-14
  0.0000E+00
  6.2402E-15
  1.2480E-14
  7.8902E-14
  9.1991E-14
  1.0508E-13
  3.9451E-14
  6.5717E-14
  9.1983E-14
  0.0000E+00
  3.9443E-14
  7.8887E-14
  2.8873E-13
  3.3364E-13
  3.7855E-13
  1.4436E-13
  2.3900E-13
  3.3364E-13
  0.0000E+00
  1.4436E-13
  2.8873E-13
  1.1178E-12
  1.2828E-12
  1.4479E-12
  5.5892E-13
  9.2089E-13
  1.2829E-12
  0.0000E+00
  5.5893E-13
  1.1179E-12
  4.3046E-12
  4.9044E-12
  5.5041E-12
  2.1523E-12
  3.5283E-12
  4.9044E-12
  0.0000E+00
  2.1523E-12
  4.3046E-12
  2.1537E-08
  2.1536E-08
  2.1536E-08
  2.1536E-08
  2.1536E-08
  2.1536E-08
  2.1535E-08
  2.1536E-08
  2.1537E-08
  8.6133E-08
  8.6128E-08
  8.6124E-08
  8.6137E-08
  8.6133E-08
  8.6128E-08
  8.6142E-08
  8.6137E-08
  8.6133E-08
  3.2300E-07
  3.2299E-07
  3.2297E-07
  3.2302E-07
  3.2300E-07
  3.2299E-07
  3.2303E-07
  3.2302E-07
  3.2300E-07
  1.2490E-06
  1.2489E-06
  1.2489E-06
  1.2490E-06
  1.2490E-06
  1.2489E-06
  1.2491E-06
  1.2490E-06
  1.2490E-06
  4.6075E-06
  4.6075E-06
  4.6074E-06
  4.6075E-06
  4.6075E-06
  4.6075E-06
  4.6076E-06
  4.6075E-06
  4.6075E-06
  1.7047E-05
  1.7047E-05
  1.7047E-05
  1.7047E-05
  1.7047E-05
  1.7047E-05
  1.7047E-05
  1.7047E-05
  1.7047E-05
  6.3561E-05
  6.3561E-05
  6.3561E-05
  6.3561E-05
  6.3561E-05
  6.3561E-05
  6.3561E-05
  6.3561E-05
  6.3561E-05
  2.3729E-04
  2.3729E-04
  2.3729E-04
  2.3729E-04
  2.3729E-04
  2.3729E-04
  2.3729E-04
  2.3729E-04
  2.3729E-04
  8.8583E-04
  8.8583E-04
  8.8583E-04
  8.8583E-04
  8.8583E-04
  8.8583E-04
  8.8583E-04
  8.8583E-04
  8.8583E-04
  3.3067E-03
  3.3067E-03
  3.3067E-03
  3.3067E-03
  3.3067E-03
  3.3067E-03
  3.3067E-03
  3.3067E-03
  3.3067E-03
  1.2343E-02
  1.2343E-02
  1.2343E-02
  1.2343E-02
  1.2343E-02
  1.2343E-02
  1.2343E-02
  1.2343E-02
  1.2343E-02
  4.6076E-02
  4.6076E-02
  4.6076E-02
  4.6076E-02
  4.6076E-02
  4.6076E-02
  4.6076E-02
  4.6076E-02
  4.6076E-02
  1.7198E-01
  1.7198E-01
  1.7198E-01
  1.7198E-01
  1.7198E-01
  1.7198E-01
  1.7198E-01
  1.7198E-01
  1.7198E-01
  2.7128E-01
  2.7128E-01
  2.7128E-01
  2.7128E-01
  2.7128E-01
  2.7128E-01
  2.7128E-01
  2.7128E-01
  2.7128E-01
   1.2500E-02
  1.0845E-15
  1.4548E-15
  1.8250E-15
  5.4226E-16
  9.9206E-16
  1.4419E-15
  0.0000E+00
  5.2934E-16
  1.0587E-15
  3.2295E-15
  4.3611E-15
  5.4927E-15
  1.6147E-15
  2.9836E-15
  4.3525E-15
  0.0000E+00
  1.6061E-15
  3.2123E-15
  1.2904E-14
  1.7462E-14
  2.2020E-14
  6.4519E-15
  1.1953E-14
  1.7454E-14
  0.0000E+00
  6.4441E-15
  1.2888E-14
  8.0221E-14
  9.3802E-14
  1.0738E-13
  4.0110E-14
  6.6952E-14
  9.3794E-14
  0.0000E+00
  4.0103E-14
  8.0206E-14
  2.9379E-13
  3.4058E-13
  3.8738E-13
  1.4689E-13
  2.4374E-13
  3.4058E-13
  0.0000E+00
  1.4689E-13
  2.9378E-13
  1.1364E-12
  1.3083E-12
  1.4803E-12
  5.6819E-13
  9.3826E-13
  1.3083E-12
  0.0000E+00
  5.6819E-13
  1.1364E-12
  4.4460E-12
  5.0665E-12
  5.6869E-12
  2.2230E-12
  3.6447E-12
  5.0665E-12
  0.0000E+00
  2.2230E-12
  4.4460E-12
  2.1886E-08
  2.1885E-08
  2.1885E-08
  2.1885E-08
  2.1885E-08
  2.1885E-08
  2.1884E-08
  2.1885E-08
  2.1886E-08
  8.7527E-08
  8.7523E-08
  8.7518E-08
  8.7532E-08
  8.7527E-08
  8.7523E-08
  8.7537E-08
  8.7532E-08
  8.7527E-08
  3.2823E-07
  3.2822E-07
  3.2820E-07
  3.2825E-07
  3.2823E-07
  3.2822E-07
  3.2826E-07
  3.2825E-07
  3.2823E-07
  1.2692E-06
  1.2691E-06
  1.2691E-06
  1.2692E-06
  1.2692E-06
  1.2691E-06
  1.2693E-06
  1.2692E-06
  1.2692E-06
  4.6820E-06
  4.6820E-06
  4.6820E-06
  4.6821E-06
  4.6820E-06
  4.6820E-06
  4.6821E-06
  4.6821E-06
  4.6820E-06
  1.7323E-05
  1.7323E-05
  1.7323E-05
  1.7323E-05
  1.7323E-05
  1.7323E-05
  1.7323E-05
  1.7323E-05
  1.7323E-05
  6.4589E-05
  6.4589E-05
  6.4589E-05
  6.4589E-05
  6.4589E-05
  6.4589E-05
  6.4589E-05
  6.4589E-05
  6.4589E-05
  2.4113E-04
  2.4113E-04
  2.4113E-04
  2.4113E-04
  2.4113E-04
  2.4113E-04
  2.4113E-04
  2.4113E-04
  2.4113E-04
  9.0016E-04
  9.0016E-04
  9.0016E-04
  9.0016E-04
  9.0016E-04
  9.0016E-04
  9.0016E-04
  9.0016E-04
  9.0016E-04
  3.3602E-03
  3.3602E-03
  3.3602E-03
  3.3602E-03
  3.3602E-03
  3.3602E-03
  3.3602E-03
  3.3602E-03
  3.3602E-03
  1.2543E-02
  1.2543E-02
  1.2543E-02
  1.2543E-02
  1.2543E-02
  1.2543E-02
  1.2543E-02
  1.2543E-02
  1.2543E-02
  4.6822E-02
  4.6822E-02
  4.6822E-02
  4.6822E-02
  4.6822E-02
  4.6822E-02
  4.6822E-02
  4.6822E-02
  4.6822E-02
  1.7476E-01
  1.7476E-01
  1.7476E-01
  1.7476E-01
  1.7476E-01
  1.7476E-01
  1.7476E-01
  1.7476E-01
  1.7476E-01
  2.7567E-01
  2.7567E-01
  2.7567E-01
  2.7567E-01
  2.7567E-01
  2.7567E-01
  2.7567E-01
  2.7567E-01
  2.7567E-01
   1.2600E-02
  1.1195E-15
  1.5019E-15
  1.8843E-15
  5.5974E-16
  1.0242E-15
  1.4887E-15
  0.0000E+00
  5.4661E-16
  1.0932E-15
  3.3339E-15
  4.5024E-15
  5.6708E-15
  1.6670E-15
  3.0803E-15
  4.4936E-15
  0.0000E+00
  1.6583E-15
  3.3165E-15
  1.3321E-14
  1.8027E-14
  2.2733E-14
  6.6607E-15
  1.2340E-14
  1.8019E-14
  0.0000E+00
  6.6528E-15
  1.3306E-14
  8.1579E-14
  9.5667E-14
  1.0975E-13
  4.0790E-14
  6.8224E-14
  9.5659E-14
  0.0000E+00
  4.0782E-14
  8.1564E-14
  3.7151E-13
  4.1508E-13
  4.5864E-13
  1.8576E-13
  3.0042E-13
  4.1507E-13
  0.0000E+00
  1.8575E-13
  3.7151E-13
  1.2819E-12
  1.4467E-12
  1.6115E-12
  6.4096E-13
  1.0438E-12
  1.4467E-12
  0.0000E+00
  6.4097E-13
  1.2819E-12
  4.5698E-12
  5.2075E-12
  5.8452E-12
  2.2849E-12
  3.7462E-12
  5.2075E-12
  0.0000E+00
  2.2849E-12
  4.5699E-12
  2.2237E-08
  2.2237E-08
  2.2236E-08
  2.2236E-08
  2.2237E-08
  2.2237E-08
  2.2236E-08
  2.2236E-08
  2.2237E-08
  8.8933E-08
  8.8929E-08
  8.8924E-08
  8.8938E-08
  8.8933E-08
  8.8929E-08
  8.8943E-08
  8.8938E-08
  8.8933E-08
  3.3350E-07
  3.3349E-07
  3.3347E-07
  3.3352E-07
  3.3350E-07
  3.3349E-07
  3.3354E-07
  3.3352E-07
  3.3350E-07
  1.2895E-06
  1.2895E-06
  1.2894E-06
  1.2896E-06
  1.2895E-06
  1.2895E-06
  1.2896E-06
  1.2896E-06
  1.2895E-06
  4.7571E-06
  4.7571E-06
  4.7571E-06
  4.7572E-06
  4.7571E-06
  4.7571E-06
  4.7572E-06
  4.7572E-06
  4.7571E-06
  1.7601E-05
  1.7601E-05
  1.7601E-05
  1.7601E-05
  1.7601E-05
  1.7601E-05
  1.7601E-05
  1.7601E-05
  1.7601E-05
  6.5625E-05
  6.5625E-05
  6.5625E-05
  6.5625E-05
  6.5625E-05
  6.5625E-05
  6.5625E-05
  6.5625E-05
  6.5625E-05
  2.4500E-04
  2.4500E-04
  2.4500E-04
  2.4500E-04
  2.4500E-04
  2.4500E-04
  2.4500E-04
  2.4500E-04
  2.4500E-04
  9.1460E-04
  9.1460E-04
  9.1460E-04
  9.1460E-04
  9.1460E-04
  9.1460E-04
  9.1460E-04
  9.1460E-04
  9.1460E-04
  3.4141E-03
  3.4141E-03
  3.4141E-03
  3.4141E-03
  3.4141E-03
  3.4141E-03
  3.4141E-03
  3.4141E-03
  3.4141E-03
  1.2744E-02
  1.2744E-02
  1.2744E-02
  1.2744E-02
  1.2744E-02
  1.2744E-02
  1.2744E-02
  1.2744E-02
  1.2744E-02
  4.7574E-02
  4.7574E-02
  4.7574E-02
  4.7574E-02
  4.7574E-02
  4.7574E-02
  4.7574E-02
  4.7574E-02
  4.7574E-02
  1.7757E-01
  1.7757E-01
  1.7757E-01
  1.7757E-01
  1.7757E-01
  1.7757E-01
  1.7757E-01
  1.7757E-01
  1.7757E-01
  2.8010E-01
  2.8010E-01
  2.8010E-01
  2.8010E-01
  2.8010E-01
  2.8010E-01
  2.8010E-01
  2.8010E-01
  2.8010E-01
   1.2700E-02
  1.1553E-15
  1.5501E-15
  1.9450E-15
  5.7764E-16
  1.0572E-15
  1.5368E-15
  0.0000E+00
  5.6430E-16
  1.1286E-15
  3.4410E-15
  4.6470E-15
  5.8531E-15
  1.7205E-15
  3.1793E-15
  4.6382E-15
  0.0000E+00
  1.7116E-15
  3.4232E-15
  1.3749E-14
  1.8606E-14
  2.3463E-14
  6.8746E-15
  1.2736E-14
  1.8598E-14
  0.0000E+00
  6.8666E-15
  1.3733E-14
  8.2978E-14
  9.7586E-14
  1.1219E-13
  4.1489E-14
  6.9533E-14
  9.7578E-14
  0.0000E+00
  4.1481E-14
  8.2962E-14
  3.7637E-13
  4.2180E-13
  4.6722E-13
  1.8819E-13
  3.0499E-13
  4.2180E-13
  0.0000E+00
  1.8818E-13
  3.7637E-13
  1.3372E-12
  1.5066E-12
  1.6761E-12
  6.6861E-13
  1.0876E-12
  1.5066E-12
  0.0000E+00
  6.6862E-13
  1.3372E-12
  4.7779E-12
  5.4304E-12
  6.0828E-12
  2.3889E-12
  3.9097E-12
  5.4304E-12
  0.0000E+00
  2.3890E-12
  4.7779E-12
  2.2592E-08
  2.2591E-08
  2.2590E-08
  2.2591E-08
  2.2591E-08
  2.2591E-08
  2.2590E-08
  2.2591E-08
  2.2592E-08
  9.0350E-08
  9.0345E-08
  9.0340E-08
  9.0355E-08
  9.0350E-08
  9.0345E-08
  9.0360E-08
  9.0355E-08
  9.0350E-08
  3.3882E-07
  3.3880E-07
  3.3878E-07
  3.3883E-07
  3.3882E-07
  3.3880E-07
  3.3885E-07
  3.3883E-07
  3.3882E-07
  1.3101E-06
  1.3100E-06
  1.3100E-06
  1.3101E-06
  1.3101E-06
  1.3100E-06
  1.3102E-06
  1.3101E-06
  1.3101E-06
  4.8328E-06
  4.8328E-06
  4.8327E-06
  4.8328E-06
  4.8328E-06
  4.8328E-06
  4.8329E-06
  4.8328E-06
  4.8328E-06
  1.7881E-05
  1.7881E-05
  1.7881E-05
  1.7881E-05
  1.7881E-05
  1.7881E-05
  1.7881E-05
  1.7881E-05
  1.7881E-05
  6.6670E-05
  6.6670E-05
  6.6670E-05
  6.6670E-05
  6.6670E-05
  6.6670E-05
  6.6670E-05
  6.6670E-05
  6.6670E-05
  2.4890E-04
  2.4890E-04
  2.4890E-04
  2.4890E-04
  2.4890E-04
  2.4890E-04
  2.4890E-04
  2.4890E-04
  2.4890E-04
  9.2916E-04
  9.2916E-04
  9.2916E-04
  9.2916E-04
  9.2916E-04
  9.2916E-04
  9.2916E-04
  9.2916E-04
  9.2916E-04
  3.4685E-03
  3.4685E-03
  3.4685E-03
  3.4685E-03
  3.4685E-03
  3.4685E-03
  3.4685E-03
  3.4685E-03
  3.4685E-03
  1.2947E-02
  1.2947E-02
  1.2947E-02
  1.2947E-02
  1.2947E-02
  1.2947E-02
  1.2947E-02
  1.2947E-02
  1.2947E-02
  4.8331E-02
  4.8331E-02
  4.8331E-02
  4.8331E-02
  4.8331E-02
  4.8331E-02
  4.8331E-02
  4.8331E-02
  4.8331E-02
  1.8040E-01
  1.8040E-01
  1.8040E-01
  1.8040E-01
  1.8040E-01
  1.8040E-01
  1.8040E-01
  1.8040E-01
  1.8040E-01
  2.8456E-01
  2.8456E-01
  2.8456E-01
  2.8456E-01
  2.8456E-01
  2.8456E-01
  2.8456E-01
  2.8456E-01
  2.8456E-01
   1.2800E-02
  1.1919E-15
  1.5995E-15
  2.0071E-15
  5.9597E-16
  1.0910E-15
  1.5860E-15
  0.0000E+00
  5.8241E-16
  1.1648E-15
  3.5505E-15
  4.7952E-15
  6.0398E-15
  1.7753E-15
  3.2807E-15
  4.7862E-15
  0.0000E+00
  1.7663E-15
  3.5325E-15
  1.4187E-14
  1.9199E-14
  2.4211E-14
  7.0937E-15
  1.3142E-14
  1.9191E-14
  0.0000E+00
  7.0855E-15
  1.4171E-14
  8.4417E-14
  9.9560E-14
  1.1470E-13
  4.2209E-14
  7.0881E-14
  9.9552E-14
  0.0000E+00
  4.2201E-14
  8.4401E-14
  3.8139E-13
  4.2873E-13
  4.7608E-13
  1.9069E-13
  3.0971E-13
  4.2873E-13
  0.0000E+00
  1.9069E-13
  3.8139E-13
  1.3564E-12
  1.5332E-12
  1.7099E-12
  6.7822E-13
  1.1057E-12
  1.5332E-12
  0.0000E+00
  6.7823E-13
  1.3565E-12
  4.9241E-12
  5.5991E-12
  6.2741E-12
  2.4620E-12
  4.0306E-12
  5.5991E-12
  0.0000E+00
  2.4621E-12
  4.9241E-12
  2.2949E-08
  2.2948E-08
  2.2948E-08
  2.2948E-08
  2.2948E-08
  2.2948E-08
  2.2947E-08
  2.2948E-08
  2.2949E-08
  9.1779E-08
  9.1774E-08
  9.1768E-08
  9.1784E-08
  9.1779E-08
  9.1774E-08
  9.1789E-08
  9.1784E-08
  9.1779E-08
  3.4417E-07
  3.4416E-07
  3.4414E-07
  3.4419E-07
  3.4417E-07
  3.4416E-07
  3.4421E-07
  3.4419E-07
  3.4417E-07
  1.3308E-06
  1.3307E-06
  1.3306E-06
  1.3308E-06
  1.3308E-06
  1.3307E-06
  1.3309E-06
  1.3308E-06
  1.3308E-06
  4.9091E-06
  4.9090E-06
  4.9090E-06
  4.9091E-06
  4.9091E-06
  4.9090E-06
  4.9091E-06
  4.9091E-06
  4.9091E-06
  1.8163E-05
  1.8163E-05
  1.8163E-05
  1.8163E-05
  1.8163E-05
  1.8163E-05
  1.8163E-05
  1.8163E-05
  1.8163E-05
  6.7722E-05
  6.7722E-05
  6.7722E-05
  6.7722E-05
  6.7722E-05
  6.7722E-05
  6.7722E-05
  6.7722E-05
  6.7722E-05
  2.5283E-04
  2.5283E-04
  2.5283E-04
  2.5283E-04
  2.5283E-04
  2.5283E-04
  2.5283E-04
  2.5283E-04
  2.5283E-04
  9.4384E-04
  9.4384E-04
  9.4384E-04
  9.4384E-04
  9.4384E-04
  9.4384E-04
  9.4384E-04
  9.4384E-04
  9.4384E-04
  3.5233E-03
  3.5233E-03
  3.5233E-03
  3.5233E-03
  3.5233E-03
  3.5233E-03
  3.5233E-03
  3.5233E-03
  3.5233E-03
  1.3152E-02
  1.3152E-02
  1.3152E-02
  1.3152E-02
  1.3152E-02
  1.3152E-02
  1.3152E-02
  1.3152E-02
  1.3152E-02
  4.9095E-02
  4.9095E-02
  4.9095E-02
  4.9095E-02
  4.9095E-02
  4.9095E-02
  4.9095E-02
  4.9095E-02
  4.9095E-02
  1.8325E-01
  1.8325E-01
  1.8325E-01
  1.8325E-01
  1.8325E-01
  1.8325E-01
  1.8325E-01
  1.8325E-01
  1.8325E-01
  2.8906E-01
  2.8906E-01
  2.8906E-01
  2.8906E-01
  2.8906E-01
  2.8906E-01
  2.8906E-01
  2.8906E-01
  2.8906E-01
   1.2900E-02
  1.2295E-15
  1.6501E-15
  2.0707E-15
  6.1473E-16
  1.1255E-15
  1.6363E-15
  0.0000E+00
  6.0096E-16
  1.2019E-15
  3.6627E-15
  4.9468E-15
  6.2310E-15
  1.8313E-15
  3.3845E-15
  4.9377E-15
  0.0000E+00
  1.8222E-15
  3.6444E-15
  1.4636E-14
  1.9806E-14
  2.4976E-14
  7.3179E-15
  1.3558E-14
  1.9798E-14
  0.0000E+00
  7.3096E-15
  1.4619E-14
  8.5898E-14
  1.0159E-13
  1.1728E-13
  4.2949E-14
  7.2266E-14
  1.0158E-13
  0.0000E+00
  4.2941E-14
  8.5882E-14
  3.8657E-13
  4.3589E-13
  4.8520E-13
  1.9328E-13
  3.1458E-13
  4.3588E-13
  0.0000E+00
  1.9328E-13
  3.8656E-13
  1.4129E-12
  1.5946E-12
  1.7763E-12
  7.0643E-13
  1.1505E-12
  1.5946E-12
  0.0000E+00
  7.0644E-13
  1.4129E-12
  5.0626E-12
  5.7588E-12
  6.4550E-12
  2.5313E-12
  4.1450E-12
  5.7588E-12
  0.0000E+00
  2.5313E-12
  5.0626E-12
  2.3309E-08
  2.3308E-08
  2.3308E-08
  2.3308E-08
  2.3308E-08
  2.3308E-08
  2.3307E-08
  2.3308E-08
  2.3309E-08
  9.3218E-08
  9.3213E-08
  9.3208E-08
  9.3224E-08
  9.3218E-08
  9.3213E-08
  9.3229E-08
  9.3224E-08
  9.3218E-08
  3.4957E-07
  3.4955E-07
  3.4954E-07
  3.4959E-07
  3.4957E-07
  3.4955E-07
  3.4961E-07
  3.4959E-07
  3.4957E-07
  1.3516E-06
  1.3515E-06
  1.3515E-06
  1.3517E-06
  1.3516E-06
  1.3515E-06
  1.3517E-06
  1.3517E-06
  1.3516E-06
  4.9859E-06
  4.9859E-06
  4.9859E-06
  4.9860E-06
  4.9859E-06
  4.9859E-06
  4.9860E-06
  4.9860E-06
  4.9859E-06
  1.8448E-05
  1.8447E-05
  1.8447E-05
  1.8448E-05
  1.8448E-05
  1.8447E-05
  1.8448E-05
  1.8448E-05
  1.8448E-05
  6.8783E-05
  6.8783E-05
  6.8783E-05
  6.8783E-05
  6.8783E-05
  6.8783E-05
  6.8783E-05
  6.8783E-05
  6.8783E-05
  2.5679E-04
  2.5679E-04
  2.5679E-04
  2.5679E-04
  2.5679E-04
  2.5679E-04
  2.5679E-04
  2.5679E-04
  2.5679E-04
  9.5863E-04
  9.5863E-04
  9.5863E-04
  9.5863E-04
  9.5863E-04
  9.5863E-04
  9.5863E-04
  9.5863E-04
  9.5863E-04
  3.5785E-03
  3.5785E-03
  3.5785E-03
  3.5785E-03
  3.5785E-03
  3.5785E-03
  3.5785E-03
  3.5785E-03
  3.5785E-03
  1.3358E-02
  1.3358E-02
  1.3358E-02
  1.3358E-02
  1.3358E-02
  1.3358E-02
  1.3358E-02
  1.3358E-02
  1.3358E-02
  4.9865E-02
  4.9865E-02
  4.9865E-02
  4.9865E-02
  4.9865E-02
  4.9865E-02
  4.9865E-02
  4.9865E-02
  4.9865E-02
  1.8612E-01
  1.8612E-01
  1.8612E-01
  1.8612E-01
  1.8612E-01
  1.8612E-01
  1.8612E-01
  1.8612E-01
  1.8612E-01
  2.9359E-01
  2.9359E-01
  2.9359E-01
  2.9359E-01
  2.9359E-01
  2.9359E-01
  2.9359E-01
  2.9359E-01
  2.9359E-01
   1.3000E-02
  1.2679E-15
  1.7018E-15
  2.1358E-15
  6.3393E-16
  1.1609E-15
  1.6878E-15
  0.0000E+00
  6.1994E-16
  1.2399E-15
  3.7775E-15
  5.1021E-15
  6.4266E-15
  1.8887E-15
  3.4908E-15
  5.0928E-15
  0.0000E+00
  1.8795E-15
  3.7589E-15
  1.5095E-14
  2.0427E-14
  2.5760E-14
  7.5474E-15
  1.3983E-14
  2.0419E-14
  0.0000E+00
  7.5390E-15
  1.5078E-14
  8.7422E-14
  1.0368E-13
  1.1994E-13
  4.3711E-14
  7.3691E-14
  1.0367E-13
  0.0000E+00
  4.3703E-14
  8.7405E-14
  3.9191E-13
  4.4326E-13
  4.9461E-13
  1.9595E-13
  3.1961E-13
  4.4326E-13
  0.0000E+00
  1.9595E-13
  3.9191E-13
  1.4331E-12
  1.6225E-12
  1.8119E-12
  7.1653E-13
  1.1695E-12
  1.6225E-12
  0.0000E+00
  7.1654E-13
  1.4331E-12
  5.2121E-12
  5.9322E-12
  6.6522E-12
  2.6061E-12
  4.2691E-12
  5.9322E-12
  0.0000E+00
  2.6061E-12
  5.2122E-12
  2.3672E-08
  2.3671E-08
  2.3670E-08
  2.3671E-08
  2.3671E-08
  2.3671E-08
  2.3670E-08
  2.3671E-08
  2.3672E-08
  9.4669E-08
  9.4663E-08
  9.4658E-08
  9.4674E-08
  9.4669E-08
  9.4663E-08
  9.4680E-08
  9.4674E-08
  9.4669E-08
  3.5501E-07
  3.5499E-07
  3.5498E-07
  3.5503E-07
  3.5501E-07
  3.5499E-07
  3.5505E-07
  3.5503E-07
  3.5501E-07
  1.3726E-06
  1.3725E-06
  1.3725E-06
  1.3727E-06
  1.3726E-06
  1.3725E-06
  1.3727E-06
  1.3727E-06
  1.3726E-06
  5.0633E-06
  5.0633E-06
  5.0633E-06
  5.0634E-06
  5.0633E-06
  5.0633E-06
  5.0634E-06
  5.0634E-06
  5.0633E-06
  1.8734E-05
  1.8734E-05
  1.8734E-05
  1.8734E-05
  1.8734E-05
  1.8734E-05
  1.8734E-05
  1.8734E-05
  1.8734E-05
  6.9852E-05
  6.9852E-05
  6.9852E-05
  6.9852E-05
  6.9852E-05
  6.9852E-05
  6.9852E-05
  6.9852E-05
  6.9852E-05
  2.6078E-04
  2.6078E-04
  2.6078E-04
  2.6078E-04
  2.6078E-04
  2.6078E-04
  2.6078E-04
  2.6078E-04
  2.6078E-04
  9.7353E-04
  9.7353E-04
  9.7353E-04
  9.7353E-04
  9.7353E-04
  9.7353E-04
  9.7353E-04
  9.7353E-04
  9.7353E-04
  3.6341E-03
  3.6341E-03
  3.6341E-03
  3.6341E-03
  3.6341E-03
  3.6341E-03
  3.6341E-03
  3.6341E-03
  3.6341E-03
  1.3566E-02
  1.3566E-02
  1.3566E-02
  1.3566E-02
  1.3566E-02
  1.3566E-02
  1.3566E-02
  1.3566E-02
  1.3566E-02
  5.0641E-02
  5.0641E-02
  5.0641E-02
  5.0641E-02
  5.0641E-02
  5.0641E-02
  5.0641E-02
  5.0641E-02
  5.0641E-02
  1.8902E-01
  1.8902E-01
  1.8902E-01
  1.8902E-01
  1.8902E-01
  1.8902E-01
  1.8902E-01
  1.8902E-01
  1.8902E-01
  2.9816E-01
  2.9816E-01
  2.9816E-01
  2.9816E-01
  2.9816E-01
  2.9816E-01
  2.9816E-01
  2.9816E-01
  2.9816E-01
   1.3100E-02
  1.3071E-15
  1.7548E-15
  2.2024E-15
  6.5357E-16
  1.1971E-15
  1.7406E-15
  0.0000E+00
  6.3937E-16
  1.2787E-15
  3.8950E-15
  5.2609E-15
  6.6268E-15
  1.9475E-15
  3.5995E-15
  5.2515E-15
  0.0000E+00
  1.9381E-15
  3.8761E-15
  1.5564E-14
  2.1063E-14
  2.6562E-14
  7.7822E-15
  1.4418E-14
  2.1054E-14
  0.0000E+00
  7.7737E-15
  1.5547E-14
  8.8988E-14
  1.0583E-13
  1.2266E-13
  4.4494E-14
  7.5156E-14
  1.0582E-13
  0.0000E+00
  4.4486E-14
  8.8971E-14
  3.9742E-13
  4.5086E-13
  5.0430E-13
  1.9871E-13
  3.2478E-13
  4.5086E-13
  0.0000E+00
  1.9871E-13
  3.9741E-13
  1.4539E-12
  1.6512E-12
  1.8485E-12
  7.2695E-13
  1.1891E-12
  1.6512E-12
  0.0000E+00
  7.2696E-13
  1.4539E-12
  5.3637E-12
  6.1083E-12
  6.8529E-12
  2.6819E-12
  4.3951E-12
  6.1083E-12
  0.0000E+00
  2.6819E-12
  5.3637E-12
  2.4037E-08
  2.4037E-08
  2.4036E-08
  2.4036E-08
  2.4036E-08
  2.4037E-08
  2.4036E-08
  2.4036E-08
  2.4037E-08
  9.6131E-08
  9.6125E-08
  9.6119E-08
  9.6136E-08
  9.6131E-08
  9.6125E-08
  9.6142E-08
  9.6136E-08
  9.6131E-08
  3.6049E-07
  3.6048E-07
  3.6046E-07
  3.6051E-07
  3.6049E-07
  3.6048E-07
  3.6053E-07
  3.6051E-07
  3.6049E-07
  1.3938E-06
  1.3937E-06
  1.3936E-06
  1.3938E-06
  1.3938E-06
  1.3937E-06
  1.3939E-06
  1.3938E-06
  1.3938E-06
  5.1414E-06
  5.1413E-06
  5.1413E-06
  5.1414E-06
  5.1414E-06
  5.1413E-06
  5.1414E-06
  5.1414E-06
  5.1414E-06
  1.9023E-05
  1.9023E-05
  1.9023E-05
  1.9023E-05
  1.9023E-05
  1.9023E-05
  1.9023E-05
  1.9023E-05
  1.9023E-05
  7.0929E-05
  7.0929E-05
  7.0929E-05
  7.0929E-05
  7.0929E-05
  7.0929E-05
  7.0929E-05
  7.0929E-05
  7.0929E-05
  2.6480E-04
  2.6480E-04
  2.6480E-04
  2.6480E-04
  2.6480E-04
  2.6480E-04
  2.6480E-04
  2.6480E-04
  2.6480E-04
  9.8855E-04
  9.8855E-04
  9.8855E-04
  9.8855E-04
  9.8855E-04
  9.8855E-04
  9.8855E-04
  9.8855E-04
  9.8855E-04
  3.6902E-03
  3.6902E-03
  3.6902E-03
  3.6902E-03
  3.6902E-03
  3.6902E-03
  3.6902E-03
  3.6902E-03
  3.6902E-03
  1.3775E-02
  1.3775E-02
  1.3775E-02
  1.3775E-02
  1.3775E-02
  1.3775E-02
  1.3775E-02
  1.3775E-02
  1.3775E-02
  5.1423E-02
  5.1423E-02
  5.1423E-02
  5.1423E-02
  5.1423E-02
  5.1423E-02
  5.1423E-02
  5.1423E-02
  5.1423E-02
  1.9194E-01
  1.9194E-01
  1.9194E-01
  1.9194E-01
  1.9194E-01
  1.9194E-01
  1.9194E-01
  1.9194E-01
  1.9194E-01
  3.0276E-01
  3.0276E-01
  3.0276E-01
  3.0276E-01
  3.0276E-01
  3.0276E-01
  3.0276E-01
  3.0276E-01
  3.0276E-01
   1.3200E-02
  1.3473E-15
  1.8090E-15
  2.2706E-15
  6.7367E-16
  1.2341E-15
  1.7946E-15
  0.0000E+00
  6.5925E-16
  1.3185E-15
  4.0152E-15
  5.4234E-15
  6.8317E-15
  2.0076E-15
  3.7107E-15
  5.4138E-15
  0.0000E+00
  1.9980E-15
  3.9960E-15
  1.6045E-14
  2.1713E-14
  2.7382E-14
  8.0225E-15
  1.4864E-14
  2.1705E-14
  0.0000E+00
  8.0138E-15
  1.6028E-14
  9.0598E-14
  1.0803E-13
  1.2547E-13
  4.5299E-14
  7.6661E-14
  1.0802E-13
  0.0000E+00
  4.5291E-14
  9.0581E-14
  4.0309E-13
  4.5868E-13
  5.1427E-13
  2.0155E-13
  3.3011E-13
  4.5868E-13
  0.0000E+00
  2.0154E-13
  4.0309E-13
  1.5118E-12
  1.7147E-12
  1.9175E-12
  7.5591E-13
  1.2353E-12
  1.7147E-12
  0.0000E+00
  7.5592E-13
  1.5118E-12
  5.5807E-12
  6.3435E-12
  7.1063E-12
  2.7904E-12
  4.5669E-12
  6.3435E-12
  0.0000E+00
  2.7904E-12
  5.5808E-12
  2.4406E-08
  2.4405E-08
  2.4404E-08
  2.4405E-08
  2.4405E-08
  2.4405E-08
  2.4404E-08
  2.4405E-08
  2.4406E-08
  9.7604E-08
  9.7598E-08
  9.7592E-08
  9.7610E-08
  9.7604E-08
  9.7598E-08
  9.7615E-08
  9.7610E-08
  9.7604E-08
  3.6602E-07
  3.6600E-07
  3.6598E-07
  3.6604E-07
  3.6602E-07
  3.6600E-07
  3.6606E-07
  3.6604E-07
  3.6602E-07
  1.4151E-06
  1.4150E-06
  1.4149E-06
  1.4151E-06
  1.4151E-06
  1.4150E-06
  1.4152E-06
  1.4151E-06
  1.4151E-06
  5.2199E-06
  5.2199E-06
  5.2199E-06
  5.2200E-06
  5.2199E-06
  5.2199E-06
  5.2200E-06
  5.2200E-06
  5.2199E-06
  1.9314E-05
  1.9314E-05
  1.9314E-05
  1.9314E-05
  1.9314E-05
  1.9314E-05
  1.9314E-05
  1.9314E-05
  1.9314E-05
  7.2014E-05
  7.2014E-05
  7.2015E-05
  7.2014E-05
  7.2014E-05
  7.2014E-05
  7.2014E-05
  7.2014E-05
  7.2014E-05
  2.6886E-04
  2.6886E-04
  2.6886E-04
  2.6886E-04
  2.6886E-04
  2.6886E-04
  2.6886E-04
  2.6886E-04
  2.6886E-04
  1.0037E-03
  1.0037E-03
  1.0037E-03
  1.0037E-03
  1.0037E-03
  1.0037E-03
  1.0037E-03
  1.0037E-03
  1.0037E-03
  3.7467E-03
  3.7467E-03
  3.7467E-03
  3.7467E-03
  3.7467E-03
  3.7467E-03
  3.7467E-03
  3.7467E-03
  3.7467E-03
  1.3986E-02
  1.3986E-02
  1.3986E-02
  1.3986E-02
  1.3986E-02
  1.3986E-02
  1.3986E-02
  1.3986E-02
  1.3986E-02
  5.2210E-02
  5.2210E-02
  5.2210E-02
  5.2210E-02
  5.2210E-02
  5.2210E-02
  5.2210E-02
  5.2210E-02
  5.2210E-02
  1.9488E-01
  1.9488E-01
  1.9488E-01
  1.9488E-01
  1.9488E-01
  1.9488E-01
  1.9488E-01
  1.9488E-01
  1.9488E-01
  3.0740E-01
  3.0740E-01
  3.0740E-01
  3.0740E-01
  3.0740E-01
  3.0740E-01
  3.0740E-01
  3.0740E-01
  3.0740E-01
   1.3300E-02
  1.3885E-15
  1.8644E-15
  2.3404E-15
  6.9423E-16
  1.2720E-15
  1.8498E-15
  0.0000E+00
  6.7958E-16
  1.3592E-15
  4.1381E-15
  5.5897E-15
  7.0412E-15
  2.0691E-15
  3.8245E-15
  5.5799E-15
  0.0000E+00
  2.0593E-15
  4.1187E-15
  1.6537E-14
  2.2379E-14
  2.8221E-14
  8.2683E-15
  1.5319E-14
  2.2370E-14
  0.0000E+00
  8.2595E-15
  1.6519E-14
  9.2253E-14
  1.1030E-13
  1.2834E-13
  4.6126E-14
  7.8207E-14
  1.1029E-13
  0.0000E+00
  4.6118E-14
  9.2235E-14
  4.0894E-13
  4.6674E-13
  5.2454E-13
  2.0447E-13
  3.3560E-13
  4.6674E-13
  0.0000E+00
  2.0447E-13
  4.0894E-13
  1.5337E-12
  1.7448E-12
  1.9559E-12
  7.6685E-13
  1.2558E-12
  1.7448E-12
  0.0000E+00
  7.6686E-13
  1.5337E-12
  5.6627E-12
  6.4564E-12
  7.2501E-12
  2.8314E-12
  4.6439E-12
  6.4565E-12
  0.0000E+00
  2.8314E-12
  5.6628E-12
  2.4777E-08
  2.4776E-08
  2.4775E-08
  2.4776E-08
  2.4776E-08
  2.4776E-08
  2.4775E-08
  2.4776E-08
  2.4777E-08
  9.9088E-08
  9.9082E-08
  9.9076E-08
  9.9094E-08
  9.9088E-08
  9.9082E-08
  9.9100E-08
  9.9094E-08
  9.9088E-08
  3.7158E-07
  3.7156E-07
  3.7154E-07
  3.7161E-07
  3.7158E-07
  3.7156E-07
  3.7163E-07
  3.7161E-07
  3.7158E-07
  1.4365E-06
  1.4365E-06
  1.4364E-06
  1.4366E-06
  1.4365E-06
  1.4365E-06
  1.4367E-06
  1.4366E-06
  1.4365E-06
  5.2991E-06
  5.2991E-06
  5.2991E-06
  5.2992E-06
  5.2991E-06
  5.2991E-06
  5.2992E-06
  5.2992E-06
  5.2991E-06
  1.9607E-05
  1.9607E-05
  1.9607E-05
  1.9607E-05
  1.9607E-05
  1.9607E-05
  1.9607E-05
  1.9607E-05
  1.9607E-05
  7.3108E-05
  7.3108E-05
  7.3108E-05
  7.3108E-05
  7.3108E-05
  7.3108E-05
  7.3108E-05
  7.3108E-05
  7.3108E-05
  2.7294E-04
  2.7294E-04
  2.7294E-04
  2.7294E-04
  2.7294E-04
  2.7294E-04
  2.7294E-04
  2.7294E-04
  2.7294E-04
  1.0189E-03
  1.0189E-03
  1.0189E-03
  1.0189E-03
  1.0189E-03
  1.0189E-03
  1.0189E-03
  1.0189E-03
  1.0189E-03
  3.8036E-03
  3.8036E-03
  3.8036E-03
  3.8036E-03
  3.8036E-03
  3.8036E-03
  3.8036E-03
  3.8036E-03
  3.8036E-03
  1.4199E-02
  1.4199E-02
  1.4199E-02
  1.4199E-02
  1.4199E-02
  1.4199E-02
  1.4199E-02
  1.4199E-02
  1.4199E-02
  5.3004E-02
  5.3004E-02
  5.3004E-02
  5.3004E-02
  5.3004E-02
  5.3004E-02
  5.3004E-02
  5.3004E-02
  5.3004E-02
  1.9784E-01
  1.9784E-01
  1.9784E-01
  1.9784E-01
  1.9784E-01
  1.9784E-01
  1.9784E-01
  1.9784E-01
  1.9784E-01
  3.1208E-01
  3.1208E-01
  3.1208E-01
  3.1208E-01
  3.1208E-01
  3.1208E-01
  3.1208E-01
  3.1208E-01
  3.1208E-01
   1.3400E-02
  1.4305E-15
  1.9211E-15
  2.4117E-15
  7.1526E-16
  1.3107E-15
  1.9062E-15
  0.0000E+00
  7.0039E-16
  1.4008E-15
  4.2639E-15
  5.7597E-15
  7.2556E-15
  2.1319E-15
  3.9409E-15
  5.7498E-15
  0.0000E+00
  2.1221E-15
  4.2441E-15
  1.7039E-14
  2.3059E-14
  2.9079E-14
  8.5197E-15
  1.5785E-14
  2.3050E-14
  0.0000E+00
  8.5108E-15
  1.7022E-14
  9.3952E-14
  1.1262E-13
  1.3130E-13
  4.6976E-14
  7.9796E-14
  1.1262E-13
  0.0000E+00
  4.6967E-14
  9.3935E-14
  4.1496E-13
  4.7503E-13
  5.3510E-13
  2.0748E-13
  3.4126E-13
  4.7503E-13
  0.0000E+00
  2.0748E-13
  4.1496E-13
  1.5928E-12
  1.8098E-12
  2.0269E-12
  7.9638E-13
  1.3031E-12
  1.8098E-12
  0.0000E+00
  7.9639E-13
  1.5928E-12
  5.8835E-12
  6.6968E-12
  7.5101E-12
  2.9418E-12
  4.8193E-12
  6.6968E-12
  0.0000E+00
  2.9418E-12
  5.8836E-12
  2.5151E-08
  2.5150E-08
  2.5149E-08
  2.5150E-08
  2.5150E-08
  2.5150E-08
  2.5149E-08
  2.5150E-08
  2.5151E-08
  1.0058E-07
  1.0058E-07
  1.0057E-07
  1.0059E-07
  1.0058E-07
  1.0058E-07
  1.0060E-07
  1.0059E-07
  1.0058E-07
  3.7719E-07
  3.7717E-07
  3.7715E-07
  3.7721E-07
  3.7719E-07
  3.7717E-07
  3.7723E-07
  3.7721E-07
  3.7719E-07
  1.4582E-06
  1.4581E-06
  1.4580E-06
  1.4582E-06
  1.4582E-06
  1.4581E-06
  1.4583E-06
  1.4582E-06
  1.4582E-06
  5.3789E-06
  5.3788E-06
  5.3788E-06
  5.3789E-06
  5.3789E-06
  5.3788E-06
  5.3789E-06
  5.3789E-06
  5.3789E-06
  1.9903E-05
  1.9902E-05
  1.9902E-05
  1.9903E-05
  1.9903E-05
  1.9902E-05
  1.9903E-05
  1.9903E-05
  1.9903E-05
  7.4210E-05
  7.4210E-05
  7.4210E-05
  7.4210E-05
  7.4210E-05
  7.4210E-05
  7.4210E-05
  7.4210E-05
  7.4210E-05
  2.7706E-04
  2.7706E-04
  2.7706E-04
  2.7706E-04
  2.7706E-04
  2.7706E-04
  2.7706E-04
  2.7706E-04
  2.7706E-04
  1.0343E-03
  1.0343E-03
  1.0343E-03
  1.0343E-03
  1.0343E-03
  1.0343E-03
  1.0343E-03
  1.0343E-03
  1.0343E-03
  3.8610E-03
  3.8610E-03
  3.8610E-03
  3.8610E-03
  3.8610E-03
  3.8610E-03
  3.8610E-03
  3.8610E-03
  3.8610E-03
  1.4413E-02
  1.4413E-02
  1.4413E-02
  1.4413E-02
  1.4413E-02
  1.4413E-02
  1.4413E-02
  1.4413E-02
  1.4413E-02
  5.3804E-02
  5.3804E-02
  5.3804E-02
  5.3804E-02
  5.3804E-02
  5.3804E-02
  5.3804E-02
  5.3804E-02
  5.3804E-02
  2.0083E-01
  2.0083E-01
  2.0083E-01
  2.0083E-01
  2.0083E-01
  2.0083E-01
  2.0083E-01
  2.0083E-01
  2.0083E-01
  3.1678E-01
  3.1678E-01
  3.1678E-01
  3.1678E-01
  3.1678E-01
  3.1678E-01
  3.1678E-01
  3.1678E-01
  3.1678E-01
   1.3500E-02
  1.4735E-15
  1.9791E-15
  2.4847E-15
  7.3676E-16
  1.3504E-15
  1.9640E-15
  0.0000E+00
  7.2167E-16
  1.4433E-15
  4.3925E-15
  5.9336E-15
  7.4747E-15
  2.1962E-15
  4.0599E-15
  5.9236E-15
  0.0000E+00
  2.1862E-15
  4.3724E-15
  1.7553E-14
  2.3755E-14
  2.9957E-14
  8.7767E-15
  1.6261E-14
  2.3746E-14
  0.0000E+00
  8.7677E-15
  1.7535E-14
  9.5698E-14
  1.1501E-13
  1.3433E-13
  4.7849E-14
  8.1426E-14
  1.1500E-13
  0.0000E+00
  4.7840E-14
  9.5680E-14
  4.2116E-13
  4.8356E-13
  5.4596E-13
  2.1058E-13
  3.4707E-13
  4.8356E-13
  0.0000E+00
  2.1058E-13
  4.2116E-13
  1.6157E-12
  1.8414E-12
  2.0672E-12
  8.0785E-13
  1.3247E-12
  1.8415E-12
  0.0000E+00
  8.0786E-13
  1.6157E-12
  6.0425E-12
  6.8831E-12
  7.7237E-12
  3.0212E-12
  4.9522E-12
  6.8831E-12
  0.0000E+00
  3.0212E-12
  6.0425E-12
  2.5528E-08
  2.5527E-08
  2.5526E-08
  2.5527E-08
  2.5527E-08
  2.5527E-08
  2.5526E-08
  2.5527E-08
  2.5528E-08
  1.0209E-07
  1.0208E-07
  1.0208E-07
  1.0210E-07
  1.0209E-07
  1.0208E-07
  1.0210E-07
  1.0210E-07
  1.0209E-07
  3.8284E-07
  3.8282E-07
  3.8280E-07
  3.8286E-07
  3.8284E-07
  3.8282E-07
  3.8289E-07
  3.8286E-07
  3.8284E-07
  1.4799E-06
  1.4799E-06
  1.4798E-06
  1.4800E-06
  1.4799E-06
  1.4799E-06
  1.4801E-06
  1.4800E-06
  1.4799E-06
  5.4592E-06
  5.4592E-06
  5.4592E-06
  5.4592E-06
  5.4592E-06
  5.4592E-06
  5.4593E-06
  5.4592E-06
  5.4592E-06
  2.0200E-05
  2.0200E-05
  2.0200E-05
  2.0200E-05
  2.0200E-05
  2.0200E-05
  2.0200E-05
  2.0200E-05
  2.0200E-05
  7.5320E-05
  7.5320E-05
  7.5320E-05
  7.5320E-05
  7.5320E-05
  7.5320E-05
  7.5320E-05
  7.5320E-05
  7.5320E-05
  2.8120E-04
  2.8120E-04
  2.8120E-04
  2.8120E-04
  2.8120E-04
  2.8120E-04
  2.8120E-04
  2.8120E-04
  2.8120E-04
  1.0498E-03
  1.0498E-03
  1.0498E-03
  1.0498E-03
  1.0498E-03
  1.0498E-03
  1.0498E-03
  1.0498E-03
  1.0498E-03
  3.9188E-03
  3.9188E-03
  3.9188E-03
  3.9188E-03
  3.9188E-03
  3.9188E-03
  3.9188E-03
  3.9188E-03
  3.9188E-03
  1.4629E-02
  1.4629E-02
  1.4629E-02
  1.4629E-02
  1.4629E-02
  1.4629E-02
  1.4629E-02
  1.4629E-02
  1.4629E-02
  5.4610E-02
  5.4610E-02
  5.4610E-02
  5.4610E-02
  5.4610E-02
  5.4610E-02
  5.4610E-02
  5.4610E-02
  5.4610E-02
  2.0384E-01
  2.0384E-01
  2.0384E-01
  2.0384E-01
  2.0384E-01
  2.0384E-01
  2.0384E-01
  2.0384E-01
  2.0384E-01
  3.2153E-01
  3.2153E-01
  3.2153E-01
  3.2153E-01
  3.2153E-01
  3.2153E-01
  3.2153E-01
  3.2153E-01
  3.2153E-01
   1.3600E-02
  1.5175E-15
  2.0384E-15
  2.5592E-15
  7.5875E-16
  1.3909E-15
  2.0230E-15
  0.0000E+00
  7.4342E-16
  1.4868E-15
  4.5240E-15
  6.1114E-15
  7.6989E-15
  2.2620E-15
  4.1816E-15
  6.1012E-15
  0.0000E+00
  2.2518E-15
  4.5036E-15
  1.8079E-14
  2.4467E-14
  3.0854E-14
  9.0396E-15
  1.6749E-14
  2.4457E-14
  0.0000E+00
  9.0304E-15
  1.8061E-14
  9.7490E-14
  1.1746E-13
  1.3744E-13
  4.8745E-14
  8.3100E-14
  1.1745E-13
  0.0000E+00
  4.8736E-14
  9.7472E-14
  4.2753E-13
  4.9233E-13
  5.5713E-13
  2.1377E-13
  3.5305E-13
  4.9233E-13
  0.0000E+00
  2.1377E-13
  4.2753E-13
  1.6759E-12
  1.9081E-12
  2.1402E-12
  8.3797E-13
  1.3730E-12
  1.9081E-12
  0.0000E+00
  8.3798E-13
  1.6760E-12
  6.2672E-12
  7.1289E-12
  7.9906E-12
  3.1336E-12
  5.1313E-12
  7.1289E-12
  0.0000E+00
  3.1336E-12
  6.2672E-12
  2.5907E-08
  2.5907E-08
  2.5906E-08
  2.5906E-08
  2.5906E-08
  2.5907E-08
  2.5905E-08
  2.5906E-08
  2.5907E-08
  1.0361E-07
  1.0360E-07
  1.0359E-07
  1.0361E-07
  1.0361E-07
  1.0360E-07
  1.0362E-07
  1.0361E-07
  1.0361E-07
  3.8854E-07
  3.8851E-07
  3.8849E-07
  3.8856E-07
  3.8854E-07
  3.8851E-07
  3.8858E-07
  3.8856E-07
  3.8854E-07
  1.5019E-06
  1.5018E-06
  1.5017E-06
  1.5020E-06
  1.5019E-06
  1.5018E-06
  1.5020E-06
  1.5020E-06
  1.5019E-06
  5.5401E-06
  5.5401E-06
  5.5401E-06
  5.5402E-06
  5.5401E-06
  5.5401E-06
  5.5402E-06
  5.5402E-06
  5.5401E-06
  2.0500E-05
  2.0500E-05
  2.0500E-05
  2.0500E-05
  2.0500E-05
  2.0500E-05
  2.0500E-05
  2.0500E-05
  2.0500E-05
  7.6438E-05
  7.6438E-05
  7.6438E-05
  7.6438E-05
  7.6438E-05
  7.6438E-05
  7.6438E-05
  7.6438E-05
  7.6438E-05
  2.8538E-04
  2.8538E-04
  2.8538E-04
  2.8538E-04
  2.8538E-04
  2.8538E-04
  2.8538E-04
  2.8538E-04
  2.8538E-04
  1.0654E-03
  1.0654E-03
  1.0654E-03
  1.0654E-03
  1.0654E-03
  1.0654E-03
  1.0654E-03
  1.0654E-03
  1.0654E-03
  3.9770E-03
  3.9770E-03
  3.9770E-03
  3.9770E-03
  3.9770E-03
  3.9770E-03
  3.9770E-03
  3.9770E-03
  3.9770E-03
  1.4846E-02
  1.4846E-02
  1.4846E-02
  1.4846E-02
  1.4846E-02
  1.4846E-02
  1.4846E-02
  1.4846E-02
  1.4846E-02
  5.5421E-02
  5.5421E-02
  5.5421E-02
  5.5421E-02
  5.5421E-02
  5.5421E-02
  5.5421E-02
  5.5421E-02
  5.5421E-02
  2.0687E-01
  2.0687E-01
  2.0687E-01
  2.0687E-01
  2.0687E-01
  2.0687E-01
  2.0687E-01
  2.0687E-01
  2.0687E-01
  3.2631E-01
  3.2631E-01
  3.2631E-01
  3.2631E-01
  3.2631E-01
  3.2631E-01
  3.2631E-01
  3.2631E-01
  3.2631E-01
   1.3700E-02
  1.5624E-15
  2.0990E-15
  2.6355E-15
  7.8122E-16
  1.4323E-15
  2.0834E-15
  0.0000E+00
  7.6567E-16
  1.5313E-15
  4.6584E-15
  6.2932E-15
  7.9280E-15
  2.3292E-15
  4.3060E-15
  6.2829E-15
  0.0000E+00
  2.3189E-15
  4.6377E-15
  1.8617E-14
  2.5194E-14
  3.1771E-14
  9.3083E-15
  1.7247E-14
  2.5185E-14
  0.0000E+00
  9.2990E-15
  1.8598E-14
  9.9329E-14
  1.1998E-13
  1.4063E-13
  4.9664E-14
  8.4817E-14
  1.1997E-13
  0.0000E+00
  4.9655E-14
  9.9311E-14
  4.3409E-13
  5.0135E-13
  5.6861E-13
  2.1705E-13
  3.5920E-13
  5.0135E-13
  0.0000E+00
  2.1705E-13
  4.3409E-13
  1.7000E-12
  1.9412E-12
  2.1824E-12
  8.5000E-13
  1.3956E-12
  1.9412E-12
  0.0000E+00
  8.5001E-13
  1.7000E-12
  6.4300E-12
  7.3205E-12
  8.2110E-12
  3.2150E-12
  5.2678E-12
  7.3205E-12
  0.0000E+00
  3.2150E-12
  6.4301E-12
  2.6290E-08
  2.6289E-08
  2.6288E-08
  2.6289E-08
  2.6289E-08
  2.6289E-08
  2.6288E-08
  2.6289E-08
  2.6290E-08
  1.0514E-07
  1.0513E-07
  1.0512E-07
  1.0514E-07
  1.0514E-07
  1.0513E-07
  1.0515E-07
  1.0514E-07
  1.0514E-07
  3.9427E-07
  3.9425E-07
  3.9422E-07
  3.9429E-07
  3.9427E-07
  3.9425E-07
  3.9431E-07
  3.9429E-07
  3.9427E-07
  1.5240E-06
  1.5239E-06
  1.5238E-06
  1.5241E-06
  1.5240E-06
  1.5239E-06
  1.5241E-06
  1.5241E-06
  1.5240E-06
  5.6216E-06
  5.6216E-06
  5.6216E-06
  5.6217E-06
  5.6216E-06
  5.6216E-06
  5.6217E-06
  5.6217E-06
  5.6216E-06
  2.0802E-05
  2.0802E-05
  2.0802E-05
  2.0802E-05
  2.0802E-05
  2.0802E-05
  2.0802E-05
  2.0802E-05
  2.0802E-05
  7.7564E-05
  7.7564E-05
  7.7564E-05
  7.7564E-05
  7.7564E-05
  7.7564E-05
  7.7564E-05
  7.7564E-05
  7.7564E-05
  2.8958E-04
  2.8958E-04
  2.8958E-04
  2.8958E-04
  2.8958E-04
  2.8958E-04
  2.8958E-04
  2.8958E-04
  2.8958E-04
  1.0811E-03
  1.0811E-03
  1.0811E-03
  1.0811E-03
  1.0811E-03
  1.0811E-03
  1.0811E-03
  1.0811E-03
  1.0811E-03
  4.0356E-03
  4.0356E-03
  4.0356E-03
  4.0356E-03
  4.0356E-03
  4.0356E-03
  4.0356E-03
  4.0356E-03
  4.0356E-03
  1.5065E-02
  1.5065E-02
  1.5065E-02
  1.5065E-02
  1.5065E-02
  1.5065E-02
  1.5065E-02
  1.5065E-02
  1.5065E-02
  5.6239E-02
  5.6239E-02
  5.6239E-02
  5.6239E-02
  5.6239E-02
  5.6239E-02
  5.6239E-02
  5.6239E-02
  5.6239E-02
  2.0992E-01
  2.0992E-01
  2.0992E-01
  2.0992E-01
  2.0992E-01
  2.0992E-01
  2.0992E-01
  2.0992E-01
  2.0992E-01
  3.3112E-01
  3.3112E-01
  3.3112E-01
  3.3112E-01
  3.3112E-01
  3.3112E-01
  3.3112E-01
  3.3112E-01
  3.3112E-01
   1.3800E-02
  1.6084E-15
  2.1609E-15
  2.7135E-15
  8.0419E-16
  1.4747E-15
  2.1451E-15
  0.0000E+00
  7.8840E-16
  1.5768E-15
  4.7958E-15
  6.4790E-15
  8.1622E-15
  2.3979E-15
  4.4332E-15
  6.4685E-15
  0.0000E+00
  2.3874E-15
  4.7748E-15
  1.9166E-14
  2.5937E-14
  3.2709E-14
  9.5830E-15
  1.7756E-14
  2.5928E-14
  0.0000E+00
  9.5736E-15
  1.9147E-14
  1.0122E-13
  1.2256E-13
  1.4390E-13
  5.0608E-14
  8.6578E-14
  1.2255E-13
  0.0000E+00
  5.0599E-14
  1.0120E-13
  4.4084E-13
  5.1061E-13
  5.8039E-13
  2.2042E-13
  3.6552E-13
  5.1061E-13
  0.0000E+00
  2.2042E-13
  4.4084E-13
  1.7247E-12
  1.9753E-12
  2.2258E-12
  8.6237E-13
  1.4188E-12
  1.9753E-12
  0.0000E+00
  8.6238E-13
  1.7248E-12
  6.5951E-12
  7.5151E-12
  8.4352E-12
  3.2975E-12
  5.4063E-12
  7.5152E-12
  0.0000E+00
  3.2976E-12
  6.5951E-12
  2.6675E-08
  2.6674E-08
  2.6673E-08
  2.6674E-08
  2.6674E-08
  2.6674E-08
  2.6673E-08
  2.6674E-08
  2.6675E-08
  1.0668E-07
  1.0667E-07
  1.0666E-07
  1.0668E-07
  1.0668E-07
  1.0667E-07
  1.0669E-07
  1.0668E-07
  1.0668E-07
  4.0005E-07
  4.0002E-07
  4.0000E-07
  4.0007E-07
  4.0005E-07
  4.0002E-07
  4.0009E-07
  4.0007E-07
  4.0005E-07
  1.5462E-06
  1.5462E-06
  1.5461E-06
  1.5463E-06
  1.5462E-06
  1.5462E-06
  1.5464E-06
  1.5463E-06
  1.5462E-06
  5.7037E-06
  5.7037E-06
  5.7037E-06
  5.7038E-06
  5.7037E-06
  5.7037E-06
  5.7038E-06
  5.7038E-06
  5.7037E-06
  2.1106E-05
  2.1106E-05
  2.1106E-05
  2.1106E-05
  2.1106E-05
  2.1106E-05
  2.1106E-05
  2.1106E-05
  2.1106E-05
  7.8699E-05
  7.8699E-05
  7.8699E-05
  7.8699E-05
  7.8699E-05
  7.8699E-05
  7.8699E-05
  7.8699E-05
  7.8699E-05
  2.9382E-04
  2.9382E-04
  2.9382E-04
  2.9382E-04
  2.9382E-04
  2.9382E-04
  2.9382E-04
  2.9382E-04
  2.9382E-04
  1.0969E-03
  1.0969E-03
  1.0969E-03
  1.0969E-03
  1.0969E-03
  1.0969E-03
  1.0969E-03
  1.0969E-03
  1.0969E-03
  4.0947E-03
  4.0947E-03
  4.0947E-03
  4.0947E-03
  4.0947E-03
  4.0947E-03
  4.0947E-03
  4.0947E-03
  4.0947E-03
  1.5286E-02
  1.5286E-02
  1.5286E-02
  1.5286E-02
  1.5286E-02
  1.5286E-02
  1.5286E-02
  1.5286E-02
  1.5286E-02
  5.7062E-02
  5.7062E-02
  5.7062E-02
  5.7062E-02
  5.7062E-02
  5.7062E-02
  5.7062E-02
  5.7062E-02
  5.7062E-02
  2.1299E-01
  2.1299E-01
  2.1299E-01
  2.1299E-01
  2.1299E-01
  2.1299E-01
  2.1299E-01
  2.1299E-01
  2.1299E-01
  3.3597E-01
  3.3597E-01
  3.3597E-01
  3.3597E-01
  3.3597E-01
  3.3597E-01
  3.3597E-01
  3.3597E-01
  3.3597E-01
   1.3900E-02
  1.6553E-15
  2.2242E-15
  2.7931E-15
  8.2766E-16
  1.5179E-15
  2.2082E-15
  0.0000E+00
  8.1165E-16
  1.6233E-15
  4.9362E-15
  6.6688E-15
  8.4015E-15
  2.4681E-15
  4.5632E-15
  6.6582E-15
  0.0000E+00
  2.4575E-15
  4.9149E-15
  1.9727E-14
  2.6697E-14
  3.3667E-14
  9.8637E-15
  1.8276E-14
  2.6688E-14
  0.0000E+00
  9.8541E-15
  1.9708E-14
  1.0315E-13
  1.2520E-13
  1.4725E-13
  5.1576E-14
  8.8385E-14
  1.2519E-13
  0.0000E+00
  5.1566E-14
  1.0313E-13
  4.4777E-13
  5.2013E-13
  5.9249E-13
  2.2388E-13
  3.7201E-13
  5.2013E-13
  0.0000E+00
  2.2388E-13
  4.4777E-13
  1.7866E-12
  2.0441E-12
  2.3016E-12
  8.9331E-13
  1.4687E-12
  2.0441E-12
  0.0000E+00
  8.9332E-13
  1.7866E-12
  6.8257E-12
  7.7690E-12
  8.7124E-12
  3.4128E-12
  5.5909E-12
  7.7690E-12
  0.0000E+00
  3.4128E-12
  6.8257E-12
  2.7063E-08
  2.7062E-08
  2.7061E-08
  2.7062E-08
  2.7062E-08
  2.7062E-08
  2.7061E-08
  2.7062E-08
  2.7063E-08
  1.0823E-07
  1.0822E-07
  1.0821E-07
  1.0824E-07
  1.0823E-07
  1.0822E-07
  1.0824E-07
  1.0824E-07
  1.0823E-07
  4.0586E-07
  4.0584E-07
  4.0582E-07
  4.0589E-07
  4.0586E-07
  4.0584E-07
  4.0591E-07
  4.0589E-07
  4.0586E-07
  1.5686E-06
  1.5686E-06
  1.5685E-06
  1.5687E-06
  1.5686E-06
  1.5686E-06
  1.5688E-06
  1.5687E-06
  1.5686E-06
  5.7864E-06
  5.7864E-06
  5.7863E-06
  5.7864E-06
  5.7864E-06
  5.7864E-06
  5.7864E-06
  5.7864E-06
  5.7864E-06
  2.1412E-05
  2.1412E-05
  2.1412E-05
  2.1412E-05
  2.1412E-05
  2.1412E-05
  2.1412E-05
  2.1412E-05
  2.1412E-05
  7.9842E-05
  7.9842E-05
  7.9842E-05
  7.9842E-05
  7.9842E-05
  7.9842E-05
  7.9842E-05
  7.9842E-05
  7.9842E-05
  2.9809E-04
  2.9809E-04
  2.9809E-04
  2.9809E-04
  2.9809E-04
  2.9809E-04
  2.9809E-04
  2.9809E-04
  2.9809E-04
  1.1128E-03
  1.1128E-03
  1.1128E-03
  1.1128E-03
  1.1128E-03
  1.1128E-03
  1.1128E-03
  1.1128E-03
  1.1128E-03
  4.1542E-03
  4.1542E-03
  4.1542E-03
  4.1542E-03
  4.1542E-03
  4.1542E-03
  4.1542E-03
  4.1542E-03
  4.1542E-03
  1.5508E-02
  1.5508E-02
  1.5508E-02
  1.5508E-02
  1.5508E-02
  1.5508E-02
  1.5508E-02
  1.5508E-02
  1.5508E-02
  5.7892E-02
  5.7892E-02
  5.7892E-02
  5.7892E-02
  5.7892E-02
  5.7892E-02
  5.7892E-02
  5.7892E-02
  5.7892E-02
  2.1609E-01
  2.1609E-01
  2.1609E-01
  2.1609E-01
  2.1609E-01
  2.1609E-01
  2.1609E-01
  2.1609E-01
  2.1609E-01
  3.4086E-01
  3.4086E-01
  3.4086E-01
  3.4086E-01
  3.4086E-01
  3.4086E-01
  3.4086E-01
  3.4086E-01
  3.4086E-01
   1.4000E-02
  1.7033E-15
  2.2889E-15
  2.8745E-15
  8.5164E-16
  1.5622E-15
  2.2727E-15
  0.0000E+00
  8.3539E-16
  1.6708E-15
  5.0796E-15
  6.8628E-15
  8.6460E-15
  2.5398E-15
  4.6959E-15
  6.8521E-15
  0.0000E+00
  2.5290E-15
  5.0581E-15
  2.0301E-14
  2.7474E-14
  3.4646E-14
  1.0150E-14
  1.8807E-14
  2.7464E-14
  0.0000E+00
  1.0141E-14
  2.0282E-14
  1.0514E-13
  1.2791E-13
  1.5069E-13
  5.2568E-14
  9.0237E-14
  1.2790E-13
  0.0000E+00
  5.2559E-14
  1.0512E-13
  4.5489E-13
  5.2990E-13
  6.0492E-13
  2.2744E-13
  3.7867E-13
  5.2990E-13
  0.0000E+00
  2.2744E-13
  4.5489E-13
  1.8125E-12
  2.0798E-12
  2.3470E-12
  9.0627E-13
  1.4930E-12
  2.0798E-12
  0.0000E+00
  9.0628E-13
  1.8126E-12
  6.9215E-12
  7.9010E-12
  8.8805E-12
  3.4608E-12
  5.6809E-12
  7.9010E-12
  0.0000E+00
  3.4608E-12
  6.9215E-12
  2.7454E-08
  2.7453E-08
  2.7452E-08
  2.7453E-08
  2.7453E-08
  2.7453E-08
  2.7452E-08
  2.7453E-08
  2.7454E-08
  1.0979E-07
  1.0978E-07
  1.0978E-07
  1.0980E-07
  1.0979E-07
  1.0978E-07
  1.0981E-07
  1.0980E-07
  1.0979E-07
  4.1172E-07
  4.1170E-07
  4.1167E-07
  4.1175E-07
  4.1172E-07
  4.1170E-07
  4.1177E-07
  4.1175E-07
  4.1172E-07
  1.5912E-06
  1.5911E-06
  1.5911E-06
  1.5913E-06
  1.5912E-06
  1.5911E-06
  1.5914E-06
  1.5913E-06
  1.5912E-06
  5.8696E-06
  5.8696E-06
  5.8696E-06
  5.8697E-06
  5.8696E-06
  5.8696E-06
  5.8697E-06
  5.8697E-06
  5.8696E-06
  2.1721E-05
  2.1721E-05
  2.1721E-05
  2.1721E-05
  2.1721E-05
  2.1721E-05
  2.1721E-05
  2.1721E-05
  2.1721E-05
  8.0993E-05
  8.0993E-05
  8.0993E-05
  8.0993E-05
  8.0993E-05
  8.0993E-05
  8.0993E-05
  8.0993E-05
  8.0993E-05
  3.0238E-04
  3.0238E-04
  3.0238E-04
  3.0238E-04
  3.0238E-04
  3.0238E-04
  3.0238E-04
  3.0238E-04
  3.0238E-04
  1.1289E-03
  1.1289E-03
  1.1289E-03
  1.1289E-03
  1.1289E-03
  1.1289E-03
  1.1289E-03
  1.1289E-03
  1.1289E-03
  4.2141E-03
  4.2141E-03
  4.2141E-03
  4.2141E-03
  4.2141E-03
  4.2141E-03
  4.2141E-03
  4.2141E-03
  4.2141E-03
  1.5731E-02
  1.5731E-02
  1.5731E-02
  1.5731E-02
  1.5731E-02
  1.5731E-02
  1.5731E-02
  1.5731E-02
  1.5731E-02
  5.8728E-02
  5.8728E-02
  5.8728E-02
  5.8728E-02
  5.8728E-02
  5.8728E-02
  5.8728E-02
  5.8728E-02
  5.8728E-02
  2.1921E-01
  2.1921E-01
  2.1921E-01
  2.1921E-01
  2.1921E-01
  2.1921E-01
  2.1921E-01
  2.1921E-01
  2.1921E-01
  3.4578E-01
  3.4578E-01
  3.4578E-01
  3.4578E-01
  3.4578E-01
  3.4578E-01
  3.4578E-01
  3.4578E-01
  3.4578E-01
   1.4100E-02
  1.7523E-15
  2.3550E-15
  2.9577E-15
  8.7614E-16
  1.6073E-15
  2.3385E-15
  0.0000E+00
  8.5966E-16
  1.7193E-15
  5.2262E-15
  7.0611E-15
  8.8959E-15
  2.6131E-15
  4.8316E-15
  7.0501E-15
  0.0000E+00
  2.6022E-15
  5.2044E-15
  2.0887E-14
  2.8267E-14
  3.5647E-14
  1.0443E-14
  1.9350E-14
  2.8257E-14
  0.0000E+00
  1.0434E-14
  2.0867E-14
  1.0717E-13
  1.3069E-13
  1.5421E-13
  5.3586E-14
  9.2134E-14
  1.3068E-13
  0.0000E+00
  5.3576E-14
  1.0715E-13
  4.6220E-13
  5.3993E-13
  6.1767E-13
  2.3110E-13
  3.8552E-13
  5.3993E-13
  0.0000E+00
  2.3110E-13
  4.6220E-13
  1.8756E-12
  2.1503E-12
  2.4250E-12
  9.3781E-13
  1.5441E-12
  2.1503E-12
  0.0000E+00
  9.3782E-13
  1.8756E-12
  7.1562E-12
  8.1606E-12
  9.1649E-12
  3.5781E-12
  5.8693E-12
  8.1606E-12
  0.0000E+00
  3.5781E-12
  7.1563E-12
  2.7847E-08
  2.7846E-08
  2.7846E-08
  2.7846E-08
  2.7846E-08
  2.7846E-08
  2.7845E-08
  2.7846E-08
  2.7847E-08
  1.1137E-07
  1.1136E-07
  1.1135E-07
  1.1137E-07
  1.1137E-07
  1.1136E-07
  1.1138E-07
  1.1137E-07
  1.1137E-07
  4.1763E-07
  4.1760E-07
  4.1757E-07
  4.1765E-07
  4.1763E-07
  4.1760E-07
  4.1768E-07
  4.1765E-07
  4.1763E-07
  1.6139E-06
  1.6139E-06
  1.6138E-06
  1.6140E-06
  1.6139E-06
  1.6139E-06
  1.6141E-06
  1.6140E-06
  1.6139E-06
  5.9535E-06
  5.9534E-06
  5.9534E-06
  5.9535E-06
  5.9535E-06
  5.9534E-06
  5.9535E-06
  5.9535E-06
  5.9535E-06
  2.2031E-05
  2.2031E-05
  2.2031E-05
  2.2031E-05
  2.2031E-05
  2.2031E-05
  2.2031E-05
  2.2031E-05
  2.2031E-05
  8.2152E-05
  8.2152E-05
  8.2152E-05
  8.2152E-05
  8.2152E-05
  8.2152E-05
  8.2152E-05
  8.2152E-05
  8.2152E-05
  3.0671E-04
  3.0671E-04
  3.0671E-04
  3.0671E-04
  3.0671E-04
  3.0671E-04
  3.0671E-04
  3.0671E-04
  3.0671E-04
  1.1450E-03
  1.1450E-03
  1.1450E-03
  1.1450E-03
  1.1450E-03
  1.1450E-03
  1.1450E-03
  1.1450E-03
  1.1450E-03
  4.2745E-03
  4.2745E-03
  4.2745E-03
  4.2745E-03
  4.2745E-03
  4.2745E-03
  4.2745E-03
  4.2745E-03
  4.2745E-03
  1.5957E-02
  1.5957E-02
  1.5957E-02
  1.5957E-02
  1.5957E-02
  1.5957E-02
  1.5957E-02
  1.5957E-02
  1.5957E-02
  5.9569E-02
  5.9569E-02
  5.9569E-02
  5.9569E-02
  5.9569E-02
  5.9569E-02
  5.9569E-02
  5.9569E-02
  5.9569E-02
  2.2235E-01
  2.2235E-01
  2.2235E-01
  2.2235E-01
  2.2235E-01
  2.2235E-01
  2.2235E-01
  2.2235E-01
  2.2235E-01
  3.5074E-01
  3.5074E-01
  3.5074E-01
  3.5074E-01
  3.5074E-01
  3.5074E-01
  3.5074E-01
  3.5074E-01
  3.5074E-01
   1.4200E-02
  1.8023E-15
  2.4225E-15
  3.0427E-15
  9.0117E-16
  1.6535E-15
  2.4058E-15
  0.0000E+00
  8.8445E-16
  1.7689E-15
  5.3759E-15
  7.2635E-15
  9.1511E-15
  2.6880E-15
  4.9702E-15
  7.2524E-15
  0.0000E+00
  2.6769E-15
  5.3538E-15
  2.1486E-14
  2.9077E-14
  3.6668E-14
  1.0743E-14
  1.9905E-14
  2.9067E-14
  0.0000E+00
  1.0733E-14
  2.1466E-14
  1.0926E-13
  1.3354E-13
  1.5782E-13
  5.4628E-14
  9.4079E-14
  1.3353E-13
  0.0000E+00
  5.4619E-14
  1.0924E-13
  4.6971E-13
  5.5022E-13
  6.3074E-13
  2.3485E-13
  3.9254E-13
  5.5022E-13
  0.0000E+00
  2.3485E-13
  4.6970E-13
  1.9028E-12
  2.1876E-12
  2.4725E-12
  9.5139E-13
  1.5695E-12
  2.1876E-12
  0.0000E+00
  9.5140E-13
  1.9028E-12
  7.3295E-12
  8.3665E-12
  9.4036E-12
  3.6647E-12
  6.0157E-12
  8.3666E-12
  0.0000E+00
  3.6648E-12
  7.3295E-12
  2.8244E-08
  2.8243E-08
  2.8242E-08
  2.8243E-08
  2.8243E-08
  2.8243E-08
  2.8241E-08
  2.8243E-08
  2.8244E-08
  1.1295E-07
  1.1294E-07
  1.1293E-07
  1.1296E-07
  1.1295E-07
  1.1294E-07
  1.1297E-07
  1.1296E-07
  1.1295E-07
  4.2357E-07
  4.2354E-07
  4.2352E-07
  4.2360E-07
  4.2357E-07
  4.2354E-07
  4.2362E-07
  4.2360E-07
  4.2357E-07
  1.6368E-06
  1.6367E-06
  1.6366E-06
  1.6369E-06
  1.6368E-06
  1.6367E-06
  1.6370E-06
  1.6369E-06
  1.6368E-06
  6.0379E-06
  6.0378E-06
  6.0378E-06
  6.0379E-06
  6.0379E-06
  6.0378E-06
  6.0379E-06
  6.0379E-06
  6.0379E-06
  2.2344E-05
  2.2344E-05
  2.2344E-05
  2.2344E-05
  2.2344E-05
  2.2344E-05
  2.2344E-05
  2.2344E-05
  2.2344E-05
  8.3319E-05
  8.3319E-05
  8.3319E-05
  8.3319E-05
  8.3319E-05
  8.3319E-05
  8.3319E-05
  8.3319E-05
  8.3319E-05
  3.1107E-04
  3.1107E-04
  3.1107E-04
  3.1107E-04
  3.1107E-04
  3.1107E-04
  3.1107E-04
  3.1107E-04
  3.1107E-04
  1.1613E-03
  1.1613E-03
  1.1613E-03
  1.1613E-03
  1.1613E-03
  1.1613E-03
  1.1613E-03
  1.1613E-03
  1.1613E-03
  4.3353E-03
  4.3353E-03
  4.3353E-03
  4.3353E-03
  4.3353E-03
  4.3353E-03
  4.3353E-03
  4.3353E-03
  4.3353E-03
  1.6184E-02
  1.6184E-02
  1.6184E-02
  1.6184E-02
  1.6184E-02
  1.6184E-02
  1.6184E-02
  1.6184E-02
  1.6184E-02
  6.0417E-02
  6.0417E-02
  6.0417E-02
  6.0417E-02
  6.0417E-02
  6.0417E-02
  6.0417E-02
  6.0417E-02
  6.0417E-02
  2.2552E-01
  2.2552E-01
  2.2552E-01
  2.2552E-01
  2.2552E-01
  2.2552E-01
  2.2552E-01
  2.2552E-01
  2.2552E-01
  3.5573E-01
  3.5573E-01
  3.5573E-01
  3.5573E-01
  3.5573E-01
  3.5573E-01
  3.5573E-01
  3.5573E-01
  3.5573E-01
   1.4300E-02
  1.8535E-15
  2.4915E-15
  3.1294E-15
  9.2673E-16
  1.7006E-15
  2.4745E-15
  0.0000E+00
  9.0977E-16
  1.8195E-15
  5.5288E-15
  7.4703E-15
  9.4118E-15
  2.7644E-15
  5.1118E-15
  7.4591E-15
  0.0000E+00
  2.7532E-15
  5.5064E-15
  2.2097E-14
  2.9905E-14
  3.7712E-14
  1.1049E-14
  2.0472E-14
  2.9895E-14
  0.0000E+00
  1.1038E-14
  2.2077E-14
  1.1139E-13
  1.3646E-13
  1.6152E-13
  5.5696E-14
  9.6071E-14
  1.3645E-13
  0.0000E+00
  5.5687E-14
  1.1137E-13
  5.5026E-13
  6.2852E-13
  7.0679E-13
  2.7513E-13
  4.5183E-13
  6.2852E-13
  0.0000E+00
  2.7513E-13
  5.5026E-13
  2.0939E-12
  2.3724E-12
  2.6510E-12
  1.0470E-12
  1.7097E-12
  2.3725E-12
  0.0000E+00
  1.0470E-12
  2.0939E-12
  7.6225E-12
  8.6768E-12
  9.7312E-12
  3.8112E-12
  6.2440E-12
  8.6769E-12
  0.0000E+00
  3.8113E-12
  7.6225E-12
  2.8643E-08
  2.8642E-08
  2.8641E-08
  2.8642E-08
  2.8642E-08
  2.8642E-08
  2.8641E-08
  2.8642E-08
  2.8643E-08
  1.1455E-07
  1.1454E-07
  1.1453E-07
  1.1455E-07
  1.1455E-07
  1.1454E-07
  1.1456E-07
  1.1455E-07
  1.1455E-07
  4.2956E-07
  4.2953E-07
  4.2950E-07
  4.2958E-07
  4.2956E-07
  4.2953E-07
  4.2961E-07
  4.2958E-07
  4.2956E-07
  1.6599E-06
  1.6598E-06
  1.6597E-06
  1.6599E-06
  1.6599E-06
  1.6598E-06
  1.6600E-06
  1.6599E-06
  1.6599E-06
  6.1229E-06
  6.1228E-06
  6.1228E-06
  6.1229E-06
  6.1229E-06
  6.1228E-06
  6.1229E-06
  6.1229E-06
  6.1229E-06
  2.2659E-05
  2.2659E-05
  2.2659E-05
  2.2659E-05
  2.2659E-05
  2.2659E-05
  2.2659E-05
  2.2659E-05
  2.2659E-05
  8.4495E-05
  8.4495E-05
  8.4495E-05
  8.4495E-05
  8.4495E-05
  8.4495E-05
  8.4495E-05
  8.4495E-05
  8.4495E-05
  3.1546E-04
  3.1546E-04
  3.1546E-04
  3.1546E-04
  3.1546E-04
  3.1546E-04
  3.1546E-04
  3.1546E-04
  3.1546E-04
  1.1777E-03
  1.1777E-03
  1.1777E-03
  1.1777E-03
  1.1777E-03
  1.1777E-03
  1.1777E-03
  1.1777E-03
  1.1777E-03
  4.3965E-03
  4.3965E-03
  4.3965E-03
  4.3965E-03
  4.3965E-03
  4.3965E-03
  4.3965E-03
  4.3965E-03
  4.3965E-03
  1.6412E-02
  1.6412E-02
  1.6412E-02
  1.6412E-02
  1.6412E-02
  1.6412E-02
  1.6412E-02
  1.6412E-02
  1.6412E-02
  6.1270E-02
  6.1270E-02
  6.1270E-02
  6.1270E-02
  6.1270E-02
  6.1270E-02
  6.1270E-02
  6.1270E-02
  6.1270E-02
  2.2870E-01
  2.2870E-01
  2.2870E-01
  2.2870E-01
  2.2870E-01
  2.2870E-01
  2.2870E-01
  2.2870E-01
  2.2870E-01
  3.6075E-01
  3.6075E-01
  3.6075E-01
  3.6075E-01
  3.6075E-01
  3.6075E-01
  3.6075E-01
  3.6075E-01
  3.6075E-01
   1.4400E-02
  1.9057E-15
  2.5619E-15
  3.2181E-15
  9.5283E-16
  1.7487E-15
  2.5447E-15
  0.0000E+00
  9.3563E-16
  1.8713E-15
  5.6850E-15
  7.6815E-15
  9.6780E-15
  2.8425E-15
  5.2563E-15
  7.6701E-15
  0.0000E+00
  2.8311E-15
  5.6622E-15
  2.2721E-14
  3.0750E-14
  3.8778E-14
  1.1361E-14
  2.1050E-14
  3.0739E-14
  0.0000E+00
  1.1351E-14
  2.2701E-14
  1.1358E-13
  1.3944E-13
  1.6530E-13
  5.6791E-14
  9.8111E-14
  1.3943E-13
  0.0000E+00
  5.6781E-14
  1.1356E-13
  5.5771E-13
  6.3878E-13
  7.1985E-13
  2.7885E-13
  4.5882E-13
  6.3878E-13
  0.0000E+00
  2.7885E-13
  5.5771E-13
  2.1216E-12
  2.4106E-12
  2.6996E-12
  1.0608E-12
  1.7357E-12
  2.4106E-12
  0.0000E+00
  1.0608E-12
  2.1216E-12
  7.7998E-12
  8.8885E-12
  9.9771E-12
  3.8999E-12
  6.3942E-12
  8.8885E-12
  0.0000E+00
  3.8999E-12
  7.7999E-12
  2.9045E-08
  2.9044E-08
  2.9043E-08
  2.9044E-08
  2.9044E-08
  2.9044E-08
  2.9043E-08
  2.9044E-08
  2.9045E-08
  1.1615E-07
  1.1615E-07
  1.1614E-07
  1.1616E-07
  1.1615E-07
  1.1615E-07
  1.1617E-07
  1.1616E-07
  1.1615E-07
  4.3558E-07
  4.3556E-07
  4.3553E-07
  4.3561E-07
  4.3558E-07
  4.3556E-07
  4.3564E-07
  4.3561E-07
  4.3558E-07
  1.6831E-06
  1.6830E-06
  1.6829E-06
  1.6831E-06
  1.6831E-06
  1.6830E-06
  1.6832E-06
  1.6831E-06
  1.6831E-06
  6.2084E-06
  6.2084E-06
  6.2084E-06
  6.2085E-06
  6.2084E-06
  6.2084E-06
  6.2085E-06
  6.2085E-06
  6.2084E-06
  2.2977E-05
  2.2977E-05
  2.2977E-05
  2.2977E-05
  2.2977E-05
  2.2977E-05
  2.2977E-05
  2.2977E-05
  2.2977E-05
  8.5678E-05
  8.5678E-05
  8.5678E-05
  8.5678E-05
  8.5678E-05
  8.5678E-05
  8.5678E-05
  8.5678E-05
  8.5678E-05
  3.1988E-04
  3.1988E-04
  3.1988E-04
  3.1988E-04
  3.1988E-04
  3.1988E-04
  3.1988E-04
  3.1988E-04
  3.1988E-04
  1.1942E-03
  1.1942E-03
  1.1942E-03
  1.1942E-03
  1.1942E-03
  1.1942E-03
  1.1942E-03
  1.1942E-03
  1.1942E-03
  4.4581E-03
  4.4581E-03
  4.4581E-03
  4.4581E-03
  4.4581E-03
  4.4581E-03
  4.4581E-03
  4.4581E-03
  4.4581E-03
  1.6642E-02
  1.6642E-02
  1.6642E-02
  1.6642E-02
  1.6642E-02
  1.6642E-02
  1.6642E-02
  1.6642E-02
  1.6642E-02
  6.2130E-02
  6.2130E-02
  6.2130E-02
  6.2130E-02
  6.2130E-02
  6.2130E-02
  6.2130E-02
  6.2130E-02
  6.2130E-02
  2.3191E-01
  2.3191E-01
  2.3191E-01
  2.3191E-01
  2.3191E-01
  2.3191E-01
  2.3191E-01
  2.3191E-01
  2.3191E-01
  3.6582E-01
  3.6582E-01
  3.6582E-01
  3.6582E-01
  3.6582E-01
  3.6582E-01
  3.6582E-01
  3.6582E-01
  3.6582E-01
   1.4500E-02
  1.9589E-15
  2.6338E-15
  3.3086E-15
  9.7947E-16
  1.7979E-15
  2.6163E-15
  0.0000E+00
  9.6203E-16
  1.9241E-15
  5.8444E-15
  7.8971E-15
  9.9498E-15
  2.9222E-15
  5.4039E-15
  7.8856E-15
  0.0000E+00
  2.9107E-15
  5.8213E-15
  2.3359E-14
  3.1612E-14
  3.9866E-14
  1.1679E-14
  2.1641E-14
  3.1602E-14
  0.0000E+00
  1.1669E-14
  2.3338E-14
  1.1582E-13
  1.4250E-13
  1.6917E-13
  5.7911E-14
  1.0020E-13
  1.4249E-13
  0.0000E+00
  5.7901E-14
  1.1580E-13
  5.6536E-13
  6.4931E-13
  7.3326E-13
  2.8268E-13
  4.6600E-13
  6.4931E-13
  0.0000E+00
  2.8268E-13
  5.6536E-13
  2.1865E-12
  2.4837E-12
  2.7809E-12
  1.0932E-12
  1.7885E-12
  2.4837E-12
  0.0000E+00
  1.0932E-12
  2.1865E-12
  8.0429E-12
  9.1596E-12
  1.0276E-11
  4.0215E-12
  6.5906E-12
  9.1596E-12
  0.0000E+00
  4.0215E-12
  8.0430E-12
  2.9450E-08
  2.9449E-08
  2.9448E-08
  2.9449E-08
  2.9449E-08
  2.9449E-08
  2.9447E-08
  2.9449E-08
  2.9450E-08
  1.1777E-07
  1.1776E-07
  1.1776E-07
  1.1778E-07
  1.1777E-07
  1.1776E-07
  1.1779E-07
  1.1778E-07
  1.1777E-07
  4.4165E-07
  4.4163E-07
  4.4160E-07
  4.4168E-07
  4.4165E-07
  4.4163E-07
  4.4171E-07
  4.4168E-07
  4.4165E-07
  1.7064E-06
  1.7063E-06
  1.7062E-06
  1.7065E-06
  1.7064E-06
  1.7063E-06
  1.7066E-06
  1.7065E-06
  1.7064E-06
  6.2946E-06
  6.2946E-06
  6.2945E-06
  6.2946E-06
  6.2946E-06
  6.2946E-06
  6.2947E-06
  6.2946E-06
  6.2946E-06
  2.3296E-05
  2.3296E-05
  2.3296E-05
  2.3296E-05
  2.3296E-05
  2.3296E-05
  2.3296E-05
  2.3296E-05
  2.3296E-05
  8.6870E-05
  8.6870E-05
  8.6870E-05
  8.6870E-05
  8.6870E-05
  8.6870E-05
  8.6870E-05
  8.6870E-05
  8.6870E-05
  3.2433E-04
  3.2433E-04
  3.2433E-04
  3.2433E-04
  3.2433E-04
  3.2433E-04
  3.2433E-04
  3.2433E-04
  3.2433E-04
  1.2108E-03
  1.2108E-03
  1.2108E-03
  1.2108E-03
  1.2108E-03
  1.2108E-03
  1.2108E-03
  1.2108E-03
  1.2108E-03
  4.5202E-03
  4.5202E-03
  4.5202E-03
  4.5202E-03
  4.5202E-03
  4.5202E-03
  4.5202E-03
  4.5202E-03
  4.5202E-03
  1.6874E-02
  1.6874E-02
  1.6874E-02
  1.6874E-02
  1.6874E-02
  1.6874E-02
  1.6874E-02
  1.6874E-02
  1.6874E-02
  6.2995E-02
  6.2995E-02
  6.2995E-02
  6.2995E-02
  6.2995E-02
  6.2995E-02
  6.2995E-02
  6.2995E-02
  6.2995E-02
  2.3514E-01
  2.3514E-01
  2.3514E-01
  2.3514E-01
  2.3514E-01
  2.3514E-01
  2.3514E-01
  2.3514E-01
  2.3514E-01
  3.7091E-01
  3.7091E-01
  3.7091E-01
  3.7091E-01
  3.7091E-01
  3.7091E-01
  3.7091E-01
  3.7091E-01
  3.7091E-01
   1.4600E-02
  2.0134E-15
  2.7071E-15
  3.4009E-15
  1.0067E-15
  1.8481E-15
  2.6895E-15
  0.0000E+00
  9.8899E-16
  1.9780E-15
  6.0072E-15
  8.1172E-15
  1.0227E-14
  3.0036E-15
  5.5546E-15
  8.1055E-15
  0.0000E+00
  2.9919E-15
  5.9838E-15
  2.4010E-14
  3.2493E-14
  4.0977E-14
  1.2005E-14
  2.2244E-14
  3.2483E-14
  0.0000E+00
  1.1994E-14
  2.3989E-14
  1.1812E-13
  1.4563E-13
  1.7314E-13
  5.9058E-14
  1.0234E-13
  1.4562E-13
  0.0000E+00
  5.9048E-14
  1.1810E-13
  5.7322E-13
  6.6012E-13
  7.4702E-13
  2.8661E-13
  4.7337E-13
  6.6012E-13
  0.0000E+00
  2.8661E-13
  5.7322E-13
  2.2521E-12
  2.5577E-12
  2.8633E-12
  1.1260E-12
  1.8419E-12
  2.5577E-12
  0.0000E+00
  1.1260E-12
  2.2521E-12
  8.2884E-12
  9.4340E-12
  1.0580E-11
  4.1442E-12
  6.7891E-12
  9.4340E-12
  0.0000E+00
  4.1442E-12
  8.2885E-12
  2.9858E-08
  2.9857E-08
  2.9855E-08
  2.9856E-08
  2.9856E-08
  2.9857E-08
  2.9855E-08
  2.9856E-08
  2.9858E-08
  1.1940E-07
  1.1939E-07
  1.1938E-07
  1.1941E-07
  1.1940E-07
  1.1939E-07
  1.1942E-07
  1.1941E-07
  1.1940E-07
  4.4777E-07
  4.4774E-07
  4.4771E-07
  4.4779E-07
  4.4777E-07
  4.4774E-07
  4.4782E-07
  4.4779E-07
  4.4777E-07
  1.7299E-06
  1.7298E-06
  1.7297E-06
  1.7300E-06
  1.7299E-06
  1.7298E-06
  1.7301E-06
  1.7300E-06
  1.7299E-06
  6.3813E-06
  6.3813E-06
  6.3813E-06
  6.3814E-06
  6.3813E-06
  6.3813E-06
  6.3814E-06
  6.3814E-06
  6.3813E-06
  2.3618E-05
  2.3618E-05
  2.3618E-05
  2.3618E-05
  2.3618E-05
  2.3618E-05
  2.3618E-05
  2.3618E-05
  2.3618E-05
  8.8070E-05
  8.8070E-05
  8.8070E-05
  8.8070E-05
  8.8070E-05
  8.8070E-05
  8.8070E-05
  8.8070E-05
  8.8070E-05
  3.2881E-04
  3.2881E-04
  3.2881E-04
  3.2881E-04
  3.2881E-04
  3.2881E-04
  3.2881E-04
  3.2881E-04
  3.2881E-04
  1.2276E-03
  1.2276E-03
  1.2276E-03
  1.2276E-03
  1.2276E-03
  1.2276E-03
  1.2276E-03
  1.2276E-03
  1.2276E-03
  4.5827E-03
  4.5827E-03
  4.5827E-03
  4.5827E-03
  4.5827E-03
  4.5827E-03
  4.5827E-03
  4.5827E-03
  4.5827E-03
  1.7108E-02
  1.7108E-02
  1.7108E-02
  1.7108E-02
  1.7108E-02
  1.7108E-02
  1.7108E-02
  1.7108E-02
  1.7108E-02
  6.3867E-02
  6.3867E-02
  6.3867E-02
  6.3867E-02
  6.3867E-02
  6.3867E-02
  6.3867E-02
  6.3867E-02
  6.3867E-02
  2.3840E-01
  2.3840E-01
  2.3840E-01
  2.3840E-01
  2.3840E-01
  2.3840E-01
  2.3840E-01
  2.3840E-01
  2.3840E-01
  3.7604E-01
  3.7604E-01
  3.7604E-01
  3.7604E-01
  3.7604E-01
  3.7604E-01
  3.7604E-01
  3.7604E-01
  3.7604E-01
   1.4700E-02
  2.0689E-15
  2.7821E-15
  3.4952E-15
  1.0344E-15
  1.8993E-15
  2.7641E-15
  0.0000E+00
  1.0165E-15
  2.0330E-15
  6.1733E-15
  8.3419E-15
  1.0511E-14
  3.0867E-15
  5.7084E-15
  8.3301E-15
  0.0000E+00
  3.0748E-15
  6.1496E-15
  2.4674E-14
  3.3392E-14
  4.2111E-14
  1.2337E-14
  2.2859E-14
  3.3382E-14
  0.0000E+00
  1.2326E-14
  2.4653E-14
  1.5678E-13
  1.8258E-13
  2.0837E-13
  7.8392E-14
  1.3048E-13
  1.8257E-13
  0.0000E+00
  7.8382E-14
  1.5676E-13
  6.4460E-13
  7.2740E-13
  8.1020E-13
  3.2230E-13
  5.2485E-13
  7.2740E-13
  0.0000E+00
  3.2230E-13
  6.4460E-13
  2.3086E-12
  2.6209E-12
  2.9332E-12
  1.1543E-12
  1.8876E-12
  2.6209E-12
  0.0000E+00
  1.1543E-12
  2.3087E-12
  8.4724E-12
  9.6548E-12
  1.0837E-11
  4.2362E-12
  6.9455E-12
  9.6548E-12
  0.0000E+00
  4.2362E-12
  8.4724E-12
  3.0268E-08
  3.0267E-08
  3.0266E-08
  3.0267E-08
  3.0267E-08
  3.0267E-08
  3.0265E-08
  3.0267E-08
  3.0268E-08
  1.2104E-07
  1.2103E-07
  1.2103E-07
  1.2105E-07
  1.2104E-07
  1.2103E-07
  1.2106E-07
  1.2105E-07
  1.2104E-07
  4.5392E-07
  4.5389E-07
  4.5386E-07
  4.5395E-07
  4.5392E-07
  4.5389E-07
  4.5398E-07
  4.5395E-07
  4.5392E-07
  1.7536E-06
  1.7535E-06
  1.7534E-06
  1.7537E-06
  1.7536E-06
  1.7535E-06
  1.7538E-06
  1.7537E-06
  1.7536E-06
  6.4687E-06
  6.4686E-06
  6.4686E-06
  6.4687E-06
  6.4687E-06
  6.4686E-06
  6.4687E-06
  6.4687E-06
  6.4687E-06
  2.3942E-05
  2.3942E-05
  2.3942E-05
  2.3942E-05
  2.3942E-05
  2.3942E-05
  2.3942E-05
  2.3942E-05
  2.3942E-05
  8.9279E-05
  8.9279E-05
  8.9279E-05
  8.9279E-05
  8.9279E-05
  8.9279E-05
  8.9279E-05
  8.9279E-05
  8.9279E-05
  3.3333E-04
  3.3333E-04
  3.3333E-04
  3.3333E-04
  3.3333E-04
  3.3333E-04
  3.3333E-04
  3.3333E-04
  3.3333E-04
  1.2444E-03
  1.2444E-03
  1.2444E-03
  1.2444E-03
  1.2444E-03
  1.2444E-03
  1.2444E-03
  1.2444E-03
  1.2444E-03
  4.6456E-03
  4.6456E-03
  4.6456E-03
  4.6456E-03
  4.6456E-03
  4.6456E-03
  4.6456E-03
  4.6456E-03
  4.6456E-03
  1.7343E-02
  1.7343E-02
  1.7343E-02
  1.7343E-02
  1.7343E-02
  1.7343E-02
  1.7343E-02
  1.7343E-02
  1.7343E-02
  6.4744E-02
  6.4744E-02
  6.4744E-02
  6.4744E-02
  6.4744E-02
  6.4744E-02
  6.4744E-02
  6.4744E-02
  6.4744E-02
  2.4167E-01
  2.4167E-01
  2.4167E-01
  2.4167E-01
  2.4167E-01
  2.4167E-01
  2.4167E-01
  2.4167E-01
  2.4167E-01
  3.8121E-01
  3.8121E-01
  3.8121E-01
  3.8121E-01
  3.8121E-01
  3.8121E-01
  3.8121E-01
  3.8121E-01
  3.8121E-01
   1.4800E-02
  2.1256E-15
  2.8585E-15
  3.5915E-15
  1.0628E-15
  1.9516E-15
  2.8403E-15
  0.0000E+00
  1.0446E-15
  2.0892E-15
  6.3429E-15
  8.5713E-15
  1.0800E-14
  3.1714E-15
  5.8653E-15
  8.5592E-15
  0.0000E+00
  3.1594E-15
  6.3188E-15
  2.5352E-14
  3.4310E-14
  4.3268E-14
  1.2676E-14
  2.3488E-14
  3.4299E-14
  0.0000E+00
  1.2665E-14
  2.5331E-14
  1.5897E-13
  1.8558E-13
  2.1219E-13
  7.9485E-14
  1.3253E-13
  1.8557E-13
  0.0000E+00
  7.9475E-14
  1.5895E-13
  6.5253E-13
  7.3835E-13
  8.2416E-13
  3.2627E-13
  5.3231E-13
  7.3835E-13
  0.0000E+00
  3.2627E-13
  6.5253E-13
  2.3754E-12
  2.6966E-12
  3.0177E-12
  1.1877E-12
  1.9422E-12
  2.6966E-12
  0.0000E+00
  1.1877E-12
  2.3754E-12
  8.7957E-12
  1.0004E-11
  1.1212E-11
  4.3978E-12
  7.2007E-12
  1.0004E-11
  0.0000E+00
  4.3978E-12
  8.7957E-12
  3.0681E-08
  3.0680E-08
  3.0679E-08
  3.0680E-08
  3.0680E-08
  3.0680E-08
  3.0679E-08
  3.0680E-08
  3.0681E-08
  1.2270E-07
  1.2269E-07
  1.2268E-07
  1.2270E-07
  1.2270E-07
  1.2269E-07
  1.2271E-07
  1.2270E-07
  1.2270E-07
  4.6012E-07
  4.6008E-07
  4.6005E-07
  4.6015E-07
  4.6012E-07
  4.6008E-07
  4.6018E-07
  4.6015E-07
  4.6012E-07
  1.7774E-06
  1.7773E-06
  1.7772E-06
  1.7775E-06
  1.7774E-06
  1.7773E-06
  1.7776E-06
  1.7775E-06
  1.7774E-06
  6.5566E-06
  6.5565E-06
  6.5565E-06
  6.5566E-06
  6.5566E-06
  6.5565E-06
  6.5566E-06
  6.5566E-06
  6.5566E-06
  2.4268E-05
  2.4268E-05
  2.4268E-05
  2.4268E-05
  2.4268E-05
  2.4268E-05
  2.4268E-05
  2.4268E-05
  2.4268E-05
  9.0495E-05
  9.0495E-05
  9.0495E-05
  9.0495E-05
  9.0495E-05
  9.0495E-05
  9.0495E-05
  9.0495E-05
  9.0495E-05
  3.3787E-04
  3.3787E-04
  3.3787E-04
  3.3787E-04
  3.3787E-04
  3.3787E-04
  3.3787E-04
  3.3787E-04
  3.3787E-04
  1.2614E-03
  1.2614E-03
  1.2614E-03
  1.2614E-03
  1.2614E-03
  1.2614E-03
  1.2614E-03
  1.2614E-03
  1.2614E-03
  4.7090E-03
  4.7090E-03
  4.7090E-03
  4.7090E-03
  4.7090E-03
  4.7090E-03
  4.7090E-03
  4.7090E-03
  4.7090E-03
  1.7579E-02
  1.7579E-02
  1.7579E-02
  1.7579E-02
  1.7579E-02
  1.7579E-02
  1.7579E-02
  1.7579E-02
  1.7579E-02
  6.5628E-02
  6.5628E-02
  6.5628E-02
  6.5628E-02
  6.5628E-02
  6.5628E-02
  6.5628E-02
  6.5628E-02
  6.5628E-02
  2.4497E-01
  2.4497E-01
  2.4497E-01
  2.4497E-01
  2.4497E-01
  2.4497E-01
  2.4497E-01
  2.4497E-01
  2.4497E-01
  3.8641E-01
  3.8641E-01
  3.8641E-01
  3.8641E-01
  3.8641E-01
  3.8641E-01
  3.8641E-01
  3.8641E-01
  3.8641E-01
   1.4900E-02
  2.1834E-15
  2.9365E-15
  3.6897E-15
  1.0917E-15
  2.0049E-15
  2.9181E-15
  0.0000E+00
  1.0733E-15
  2.1465E-15
  6.5159E-15
  8.8053E-15
  1.1095E-14
  3.2580E-15
  6.0255E-15
  8.7931E-15
  0.0000E+00
  3.2458E-15
  6.4915E-15
  2.6044E-14
  3.5246E-14
  4.4449E-14
  1.3022E-14
  2.4129E-14
  3.5236E-14
  0.0000E+00
  1.3011E-14
  2.6022E-14
  1.6121E-13
  1.8866E-13
  2.1610E-13
  8.0606E-14
  1.3463E-13
  1.8865E-13
  0.0000E+00
  8.0596E-14
  1.6119E-13
  6.6068E-13
  7.4959E-13
  8.3850E-13
  3.3034E-13
  5.3997E-13
  7.4959E-13
  0.0000E+00
  3.3034E-13
  6.6068E-13
  2.4063E-12
  2.7391E-12
  3.0719E-12
  1.2031E-12
  1.9711E-12
  2.7391E-12
  0.0000E+00
  1.2031E-12
  2.4063E-12
  8.9843E-12
  1.0231E-11
  1.1477E-11
  4.4922E-12
  7.3615E-12
  1.0231E-11
  0.0000E+00
  4.4922E-12
  8.9843E-12
  3.1097E-08
  3.1096E-08
  3.1095E-08
  3.1096E-08
  3.1096E-08
  3.1096E-08
  3.1094E-08
  3.1096E-08
  3.1097E-08
  1.2436E-07
  1.2435E-07
  1.2434E-07
  1.2437E-07
  1.2436E-07
  1.2435E-07
  1.2438E-07
  1.2437E-07
  1.2436E-07
  4.6635E-07
  4.6632E-07
  4.6629E-07
  4.6639E-07
  4.6635E-07
  4.6632E-07
  4.6642E-07
  4.6639E-07
  4.6635E-07
  1.8014E-06
  1.8013E-06
  1.8012E-06
  1.8015E-06
  1.8014E-06
  1.8013E-06
  1.8016E-06
  1.8015E-06
  1.8014E-06
  6.6451E-06
  6.6450E-06
  6.6450E-06
  6.6451E-06
  6.6451E-06
  6.6450E-06
  6.6451E-06
  6.6451E-06
  6.6451E-06
  2.4596E-05
  2.4596E-05
  2.4596E-05
  2.4596E-05
  2.4596E-05
  2.4596E-05
  2.4596E-05
  2.4596E-05
  2.4596E-05
  9.1720E-05
  9.1720E-05
  9.1720E-05
  9.1720E-05
  9.1720E-05
  9.1720E-05
  9.1720E-05
  9.1720E-05
  9.1720E-05
  3.4244E-04
  3.4244E-04
  3.4244E-04
  3.4244E-04
  3.4244E-04
  3.4244E-04
  3.4244E-04
  3.4244E-04
  3.4244E-04
  1.2785E-03
  1.2785E-03
  1.2785E-03
  1.2785E-03
  1.2785E-03
  1.2785E-03
  1.2785E-03
  1.2785E-03
  1.2785E-03
  4.7727E-03
  4.7727E-03
  4.7727E-03
  4.7727E-03
  4.7727E-03
  4.7727E-03
  4.7727E-03
  4.7727E-03
  4.7727E-03
  1.7817E-02
  1.7817E-02
  1.7817E-02
  1.7817E-02
  1.7817E-02
  1.7817E-02
  1.7817E-02
  1.7817E-02
  1.7817E-02
  6.6517E-02
  6.6517E-02
  6.6517E-02
  6.6517E-02
  6.6517E-02
  6.6517E-02
  6.6517E-02
  6.6517E-02
  6.6517E-02
  2.4829E-01
  2.4829E-01
  2.4829E-01
  2.4829E-01
  2.4829E-01
  2.4829E-01
  2.4829E-01
  2.4829E-01
  2.4829E-01
  3.9165E-01
  3.9165E-01
  3.9165E-01
  3.9165E-01
  3.9165E-01
  3.9165E-01
  3.9165E-01
  3.9165E-01
  3.9165E-01
   1.5000E-02
  2.2424E-15
  3.0161E-15
  3.7899E-15
  1.1212E-15
  2.0593E-15
  2.9975E-15
  0.0000E+00
  1.1025E-15
  2.2050E-15
  6.6925E-15
  9.0440E-15
  1.1396E-14
  3.3462E-15
  6.1890E-15
  9.0317E-15
  0.0000E+00
  3.3339E-15
  6.6678E-15
  2.6750E-14
  3.6202E-14
  4.5654E-14
  1.3375E-14
  2.4783E-14
  3.6191E-14
  0.0000E+00
  1.3364E-14
  2.6728E-14
  1.6351E-13
  1.9181E-13
  2.2011E-13
  8.1755E-14
  1.3678E-13
  1.9180E-13
  0.0000E+00
  8.1745E-14
  1.6349E-13
  6.6905E-13
  7.6113E-13
  8.5320E-13
  3.3452E-13
  5.4783E-13
  7.6113E-13
  0.0000E+00
  3.3452E-13
  6.6905E-13
  2.4744E-12
  2.8166E-12
  3.1588E-12
  1.2372E-12
  2.0269E-12
  2.8166E-12
  0.0000E+00
  1.2372E-12
  2.4744E-12
  9.2390E-12
  1.0518E-11
  1.1797E-11
  4.6195E-12
  7.5687E-12
  1.0518E-11
  0.0000E+00
  4.6195E-12
  9.2390E-12
  3.1516E-08
  3.1515E-08
  3.1514E-08
  3.1515E-08
  3.1515E-08
  3.1515E-08
  3.1513E-08
  3.1515E-08
  3.1516E-08
  1.2603E-07
  1.2602E-07
  1.2601E-07
  1.2604E-07
  1.2603E-07
  1.2602E-07
  1.2605E-07
  1.2604E-07
  1.2603E-07
  4.7263E-07
  4.7260E-07
  4.7257E-07
  4.7267E-07
  4.7263E-07
  4.7260E-07
  4.7270E-07
  4.7267E-07
  4.7263E-07
  1.8255E-06
  1.8254E-06
  1.8253E-06
  1.8256E-06
  1.8255E-06
  1.8254E-06
  1.8257E-06
  1.8256E-06
  1.8255E-06
  6.7341E-06
  6.7341E-06
  6.7341E-06
  6.7341E-06
  6.7341E-06
  6.7341E-06
  6.7342E-06
  6.7341E-06
  6.7341E-06
  2.4926E-05
  2.4926E-05
  2.4926E-05
  2.4926E-05
  2.4926E-05
  2.4926E-05
  2.4926E-05
  2.4926E-05
  2.4926E-05
  9.2953E-05
  9.2953E-05
  9.2953E-05
  9.2953E-05
  9.2953E-05
  9.2953E-05
  9.2953E-05
  9.2953E-05
  9.2953E-05
  3.4705E-04
  3.4705E-04
  3.4705E-04
  3.4705E-04
  3.4705E-04
  3.4705E-04
  3.4705E-04
  3.4705E-04
  3.4705E-04
  1.2956E-03
  1.2956E-03
  1.2956E-03
  1.2956E-03
  1.2956E-03
  1.2956E-03
  1.2956E-03
  1.2956E-03
  1.2956E-03
  4.8369E-03
  4.8369E-03
  4.8369E-03
  4.8369E-03
  4.8369E-03
  4.8369E-03
  4.8369E-03
  4.8369E-03
  4.8369E-03
  1.8057E-02
  1.8057E-02
  1.8057E-02
  1.8057E-02
  1.8057E-02
  1.8057E-02
  1.8057E-02
  1.8057E-02
  1.8057E-02
  6.7412E-02
  6.7412E-02
  6.7412E-02
  6.7412E-02
  6.7412E-02
  6.7412E-02
  6.7412E-02
  6.7412E-02
  6.7412E-02
  2.5163E-01
  2.5163E-01
  2.5163E-01
  2.5163E-01
  2.5163E-01
  2.5163E-01
  2.5163E-01
  2.5163E-01
  2.5163E-01
  3.9693E-01
  3.9693E-01
  3.9693E-01
  3.9693E-01
  3.9693E-01
  3.9693E-01
  3.9693E-01
  3.9693E-01
  3.9693E-01
   1.5100E-02
  2.3026E-15
  3.0974E-15
  3.8921E-15
  1.1513E-15
  2.1149E-15
  3.0784E-15
  0.0000E+00
  1.1324E-15
  2.2647E-15
  6.8726E-15
  9.2876E-15
  1.1703E-14
  3.4363E-15
  6.3557E-15
  9.2751E-15
  0.0000E+00
  3.4238E-15
  6.8475E-15
  2.7470E-14
  3.7177E-14
  4.6883E-14
  1.3735E-14
  2.5450E-14
  3.7166E-14
  0.0000E+00
  1.3724E-14
  2.7448E-14
  1.6587E-13
  1.9504E-13
  2.2422E-13
  8.2933E-14
  1.3898E-13
  1.9503E-13
  0.0000E+00
  8.2922E-14
  1.6584E-13
  6.7764E-13
  7.7296E-13
  8.6829E-13
  3.3882E-13
  5.5589E-13
  7.7296E-13
  0.0000E+00
  3.3882E-13
  6.7764E-13
  2.5433E-12
  2.8951E-12
  3.2470E-12
  1.2716E-12
  2.0834E-12
  2.8951E-12
  0.0000E+00
  1.2716E-12
  2.5433E-12
  9.4961E-12
  1.0808E-11
  1.2120E-11
  4.7481E-12
  7.7782E-12
  1.0808E-11
  0.0000E+00
  4.7481E-12
  9.4962E-12
  3.1938E-08
  3.1937E-08
  3.1936E-08
  3.1936E-08
  3.1937E-08
  3.1937E-08
  3.1935E-08
  3.1936E-08
  3.1938E-08
  1.2772E-07
  1.2771E-07
  1.2770E-07
  1.2773E-07
  1.2772E-07
  1.2771E-07
  1.2774E-07
  1.2773E-07
  1.2772E-07
  4.7896E-07
  4.7892E-07
  4.7889E-07
  4.7899E-07
  4.7896E-07
  4.7892E-07
  4.7902E-07
  4.7899E-07
  4.7896E-07
  1.8498E-06
  1.8497E-06
  1.8496E-06
  1.8499E-06
  1.8498E-06
  1.8497E-06
  1.8500E-06
  1.8499E-06
  1.8498E-06
  6.8238E-06
  6.8237E-06
  6.8237E-06
  6.8238E-06
  6.8238E-06
  6.8237E-06
  6.8238E-06
  6.8238E-06
  6.8238E-06
  2.5259E-05
  2.5259E-05
  2.5259E-05
  2.5259E-05
  2.5259E-05
  2.5259E-05
  2.5259E-05
  2.5259E-05
  2.5259E-05
  9.4194E-05
  9.4194E-05
  9.4194E-05
  9.4194E-05
  9.4194E-05
  9.4194E-05
  9.4194E-05
  9.4194E-05
  9.4194E-05
  3.5168E-04
  3.5168E-04
  3.5168E-04
  3.5168E-04
  3.5168E-04
  3.5168E-04
  3.5168E-04
  3.5168E-04
  3.5168E-04
  1.3130E-03
  1.3130E-03
  1.3130E-03
  1.3130E-03
  1.3130E-03
  1.3130E-03
  1.3130E-03
  1.3130E-03
  1.3130E-03
  4.9016E-03
  4.9016E-03
  4.9016E-03
  4.9016E-03
  4.9016E-03
  4.9016E-03
  4.9016E-03
  4.9016E-03
  4.9016E-03
  1.8298E-02
  1.8298E-02
  1.8298E-02
  1.8298E-02
  1.8298E-02
  1.8298E-02
  1.8298E-02
  1.8298E-02
  1.8298E-02
  6.8314E-02
  6.8314E-02
  6.8314E-02
  6.8314E-02
  6.8314E-02
  6.8314E-02
  6.8314E-02
  6.8314E-02
  6.8314E-02
  2.5500E-01
  2.5500E-01
  2.5500E-01
  2.5500E-01
  2.5500E-01
  2.5500E-01
  2.5500E-01
  2.5500E-01
  2.5500E-01
  4.0223E-01
  4.0223E-01
  4.0223E-01
  4.0223E-01
  4.0223E-01
  4.0223E-01
  4.0223E-01
  4.0223E-01
  4.0223E-01
   1.5200E-02
  2.3640E-15
  3.1802E-15
  3.9964E-15
  1.1820E-15
  2.1715E-15
  3.1610E-15
  0.0000E+00
  1.1628E-15
  2.3256E-15
  7.0563E-15
  9.5361E-15
  1.2016E-14
  3.5281E-15
  6.5258E-15
  9.5234E-15
  0.0000E+00
  3.5155E-15
  7.0309E-15
  2.8205E-14
  3.8171E-14
  4.8137E-14
  1.4102E-14
  2.6131E-14
  3.8160E-14
  0.0000E+00
  1.4091E-14
  2.8182E-14
  1.6828E-13
  1.9835E-13
  2.2843E-13
  8.4139E-14
  1.4124E-13
  1.9834E-13
  0.0000E+00
  8.4129E-14
  1.6826E-13
  6.8646E-13
  7.8510E-13
  8.8375E-13
  3.4323E-13
  5.6417E-13
  7.8510E-13
  0.0000E+00
  3.4323E-13
  6.8646E-13
  2.5762E-12
  2.9404E-12
  3.3047E-12
  1.2881E-12
  2.1143E-12
  2.9404E-12
  0.0000E+00
  1.2881E-12
  2.5762E-12
  9.6919E-12
  1.1045E-11
  1.2399E-11
  4.8460E-12
  7.9457E-12
  1.1045E-11
  0.0000E+00
  4.8460E-12
  9.6920E-12
  3.2362E-08
  3.2361E-08
  3.2360E-08
  3.2361E-08
  3.2361E-08
  3.2361E-08
  3.2359E-08
  3.2361E-08
  3.2362E-08
  1.2942E-07
  1.2941E-07
  1.2940E-07
  1.2943E-07
  1.2942E-07
  1.2941E-07
  1.2944E-07
  1.2943E-07
  1.2942E-07
  4.8532E-07
  4.8528E-07
  4.8525E-07
  4.8535E-07
  4.8532E-07
  4.8528E-07
  4.8539E-07
  4.8535E-07
  4.8532E-07
  1.8742E-06
  1.8741E-06
  1.8740E-06
  1.8744E-06
  1.8742E-06
  1.8741E-06
  1.8745E-06
  1.8744E-06
  1.8742E-06
  6.9140E-06
  6.9140E-06
  6.9139E-06
  6.9140E-06
  6.9140E-06
  6.9140E-06
  6.9141E-06
  6.9140E-06
  6.9140E-06
  2.5593E-05
  2.5593E-05
  2.5593E-05
  2.5593E-05
  2.5593E-05
  2.5593E-05
  2.5593E-05
  2.5593E-05
  2.5593E-05
  9.5443E-05
  9.5443E-05
  9.5443E-05
  9.5443E-05
  9.5443E-05
  9.5443E-05
  9.5443E-05
  9.5443E-05
  9.5443E-05
  3.5635E-04
  3.5635E-04
  3.5635E-04
  3.5635E-04
  3.5635E-04
  3.5635E-04
  3.5635E-04
  3.5635E-04
  3.5635E-04
  1.3304E-03
  1.3304E-03
  1.3304E-03
  1.3304E-03
  1.3304E-03
  1.3304E-03
  1.3304E-03
  1.3304E-03
  1.3304E-03
  4.9666E-03
  4.9666E-03
  4.9666E-03
  4.9666E-03
  4.9666E-03
  4.9666E-03
  4.9666E-03
  4.9666E-03
  4.9666E-03
  1.8541E-02
  1.8541E-02
  1.8541E-02
  1.8541E-02
  1.8541E-02
  1.8541E-02
  1.8541E-02
  1.8541E-02
  1.8541E-02
  6.9221E-02
  6.9221E-02
  6.9221E-02
  6.9221E-02
  6.9221E-02
  6.9221E-02
  6.9221E-02
  6.9221E-02
  6.9221E-02
  2.5839E-01
  2.5839E-01
  2.5839E-01
  2.5839E-01
  2.5839E-01
  2.5839E-01
  2.5839E-01
  2.5839E-01
  2.5839E-01
  4.0758E-01
  4.0758E-01
  4.0758E-01
  4.0758E-01
  4.0758E-01
  4.0758E-01
  4.0758E-01
  4.0758E-01
  4.0758E-01
   1.5300E-02
  2.4266E-15
  3.2647E-15
  4.1028E-15
  1.2133E-15
  2.2293E-15
  3.2453E-15
  0.0000E+00
  1.1939E-15
  2.3877E-15
  7.2437E-15
  9.7896E-15
  1.2335E-14
  3.6218E-15
  6.6993E-15
  9.7767E-15
  0.0000E+00
  3.6090E-15
  7.2180E-15
  2.8954E-14
  3.9185E-14
  4.9416E-14
  1.4477E-14
  2.6825E-14
  3.9174E-14
  0.0000E+00
  1.4466E-14
  2.8931E-14
  1.7075E-13
  2.0174E-13
  2.3274E-13
  8.5375E-14
  1.4355E-13
  2.0173E-13
  0.0000E+00
  8.5364E-14
  1.7073E-13
  6.9550E-13
  7.9755E-13
  8.9960E-13
  3.4775E-13
  5.7265E-13
  7.9755E-13
  0.0000E+00
  3.4775E-13
  6.9550E-13
  2.6464E-12
  3.0209E-12
  3.3953E-12
  1.3232E-12
  2.1721E-12
  3.0209E-12
  0.0000E+00
  1.3232E-12
  2.6465E-12
  9.9539E-12
  1.1342E-11
  1.2731E-11
  4.9770E-12
  8.1597E-12
  1.1342E-11
  0.0000E+00
  4.9770E-12
  9.9540E-12
  3.2790E-08
  3.2788E-08
  3.2787E-08
  3.2788E-08
  3.2788E-08
  3.2788E-08
  3.2786E-08
  3.2788E-08
  3.2790E-08
  1.3112E-07
  1.3111E-07
  1.3110E-07
  1.3114E-07
  1.3112E-07
  1.3111E-07
  1.3115E-07
  1.3114E-07
  1.3112E-07
  4.9173E-07
  4.9169E-07
  4.9165E-07
  4.9176E-07
  4.9173E-07
  4.9169E-07
  4.9180E-07
  4.9176E-07
  4.9173E-07
  1.8989E-06
  1.8987E-06
  1.8986E-06
  1.8990E-06
  1.8989E-06
  1.8987E-06
  1.8991E-06
  1.8990E-06
  1.8989E-06
  7.0048E-06
  7.0048E-06
  7.0048E-06
  7.0048E-06
  7.0048E-06
  7.0048E-06
  7.0049E-06
  7.0048E-06
  7.0048E-06
  2.5930E-05
  2.5930E-05
  2.5930E-05
  2.5930E-05
  2.5930E-05
  2.5930E-05
  2.5930E-05
  2.5930E-05
  2.5930E-05
  9.6700E-05
  9.6700E-05
  9.6700E-05
  9.6700E-05
  9.6700E-05
  9.6700E-05
  9.6700E-05
  9.6700E-05
  9.6700E-05
  3.6104E-04
  3.6104E-04
  3.6104E-04
  3.6104E-04
  3.6104E-04
  3.6104E-04
  3.6104E-04
  3.6104E-04
  3.6104E-04
  1.3479E-03
  1.3479E-03
  1.3479E-03
  1.3479E-03
  1.3479E-03
  1.3479E-03
  1.3479E-03
  1.3479E-03
  1.3479E-03
  5.0321E-03
  5.0321E-03
  5.0321E-03
  5.0321E-03
  5.0321E-03
  5.0321E-03
  5.0321E-03
  5.0321E-03
  5.0321E-03
  1.8786E-02
  1.8786E-02
  1.8786E-02
  1.8786E-02
  1.8786E-02
  1.8786E-02
  1.8786E-02
  1.8786E-02
  1.8786E-02
  7.0134E-02
  7.0134E-02
  7.0134E-02
  7.0134E-02
  7.0134E-02
  7.0134E-02
  7.0134E-02
  7.0134E-02
  7.0134E-02
  2.6180E-01
  2.6180E-01
  2.6180E-01
  2.6180E-01
  2.6180E-01
  2.6180E-01
  2.6180E-01
  2.6180E-01
  2.6180E-01
  4.1296E-01
  4.1296E-01
  4.1296E-01
  4.1296E-01
  4.1296E-01
  4.1296E-01
  4.1296E-01
  4.1296E-01
  4.1296E-01
   1.5400E-02
  2.4904E-15
  3.3509E-15
  4.2113E-15
  1.2452E-15
  2.2882E-15
  3.3312E-15
  0.0000E+00
  1.2255E-15
  2.4510E-15
  7.4348E-15
  1.0048E-14
  1.2661E-14
  3.7174E-15
  6.8762E-15
  1.0035E-14
  0.0000E+00
  3.7044E-15
  7.4087E-15
  2.9718E-14
  4.0219E-14
  5.0721E-14
  1.4859E-14
  2.7533E-14
  4.0208E-14
  0.0000E+00
  1.4847E-14
  2.9695E-14
  1.7328E-13
  2.0521E-13
  2.3715E-13
  8.6640E-14
  1.4592E-13
  2.0520E-13
  0.0000E+00
  8.6629E-14
  1.7326E-13
  7.0478E-13
  8.1031E-13
  9.1585E-13
  3.5239E-13
  5.8135E-13
  8.1031E-13
  0.0000E+00
  3.5239E-13
  7.0477E-13
  2.6808E-12
  3.0682E-12
  3.4556E-12
  1.3404E-12
  2.2043E-12
  3.0682E-12
  0.0000E+00
  1.3404E-12
  2.6809E-12
  1.0228E-11
  1.1655E-11
  1.3081E-11
  5.1140E-12
  8.3844E-12
  1.1655E-11
  0.0000E+00
  5.1141E-12
  1.0228E-11
  3.3220E-08
  3.3218E-08
  3.3217E-08
  3.3218E-08
  3.3218E-08
  3.3218E-08
  3.3216E-08
  3.3218E-08
  3.3220E-08
  1.3284E-07
  1.3283E-07
  1.3282E-07
  1.3285E-07
  1.3284E-07
  1.3283E-07
  1.3287E-07
  1.3285E-07
  1.3284E-07
  4.9817E-07
  4.9814E-07
  4.9810E-07
  4.9821E-07
  4.9817E-07
  4.9814E-07
  4.9825E-07
  4.9821E-07
  4.9817E-07
  1.9236E-06
  1.9235E-06
  1.9234E-06
  1.9237E-06
  1.9236E-06
  1.9235E-06
  1.9239E-06
  1.9237E-06
  1.9236E-06
  7.0962E-06
  7.0962E-06
  7.0962E-06
  7.0962E-06
  7.0962E-06
  7.0962E-06
  7.0963E-06
  7.0962E-06
  7.0962E-06
  2.6269E-05
  2.6269E-05
  2.6269E-05
  2.6269E-05
  2.6269E-05
  2.6269E-05
  2.6269E-05
  2.6269E-05
  2.6269E-05
  9.7966E-05
  9.7966E-05
  9.7966E-05
  9.7966E-05
  9.7966E-05
  9.7966E-05
  9.7966E-05
  9.7966E-05
  9.7966E-05
  3.6577E-04
  3.6577E-04
  3.6577E-04
  3.6577E-04
  3.6577E-04
  3.6577E-04
  3.6577E-04
  3.6577E-04
  3.6577E-04
  1.3656E-03
  1.3656E-03
  1.3656E-03
  1.3656E-03
  1.3656E-03
  1.3656E-03
  1.3656E-03
  1.3656E-03
  1.3656E-03
  5.0980E-03
  5.0980E-03
  5.0980E-03
  5.0980E-03
  5.0980E-03
  5.0980E-03
  5.0980E-03
  5.0980E-03
  5.0980E-03
  1.9032E-02
  1.9032E-02
  1.9032E-02
  1.9032E-02
  1.9032E-02
  1.9032E-02
  1.9032E-02
  1.9032E-02
  1.9032E-02
  7.1054E-02
  7.1054E-02
  7.1054E-02
  7.1054E-02
  7.1054E-02
  7.1054E-02
  7.1054E-02
  7.1054E-02
  7.1054E-02
  2.6523E-01
  2.6523E-01
  2.6523E-01
  2.6523E-01
  2.6523E-01
  2.6523E-01
  2.6523E-01
  2.6523E-01
  2.6523E-01
  4.1837E-01
  4.1837E-01
  4.1837E-01
  4.1837E-01
  4.1837E-01
  4.1837E-01
  4.1837E-01
  4.1837E-01
  4.1837E-01
   1.5500E-02
  2.5555E-15
  3.4387E-15
  4.3219E-15
  1.2778E-15
  2.3483E-15
  3.4188E-15
  0.0000E+00
  1.2578E-15
  2.5156E-15
  7.6296E-15
  1.0312E-14
  1.2993E-14
  3.8148E-15
  7.0566E-15
  1.0298E-14
  0.0000E+00
  3.8016E-15
  7.6032E-15
  3.0497E-14
  4.1274E-14
  5.2050E-14
  1.5248E-14
  2.8255E-14
  4.1262E-14
  0.0000E+00
  1.5237E-14
  3.0474E-14
  1.7587E-13
  2.0876E-13
  2.4166E-13
  8.7936E-14
  1.4834E-13
  2.0875E-13
  0.0000E+00
  8.7925E-14
  1.7585E-13
  7.8743E-13
  8.9150E-13
  9.9556E-13
  3.9372E-13
  6.4261E-13
  8.9150E-13
  0.0000E+00
  3.9372E-13
  7.8743E-13
  2.8798E-12
  3.2638E-12
  3.6477E-12
  1.4399E-12
  2.3519E-12
  3.2638E-12
  0.0000E+00
  1.4399E-12
  2.8798E-12
  1.0549E-11
  1.2004E-11
  1.3458E-11
  5.2746E-12
  8.6391E-12
  1.2004E-11
  0.0000E+00
  5.2746E-12
  1.0549E-11
  3.3653E-08
  3.3651E-08
  3.3650E-08
  3.3651E-08
  3.3651E-08
  3.3651E-08
  3.3649E-08
  3.3651E-08
  3.3653E-08
  1.3457E-07
  1.3456E-07
  1.3455E-07
  1.3459E-07
  1.3457E-07
  1.3456E-07
  1.3460E-07
  1.3459E-07
  1.3457E-07
  5.0466E-07
  5.0463E-07
  5.0459E-07
  5.0470E-07
  5.0466E-07
  5.0463E-07
  5.0474E-07
  5.0470E-07
  5.0466E-07
  1.9485E-06
  1.9484E-06
  1.9483E-06
  1.9487E-06
  1.9485E-06
  1.9484E-06
  1.9488E-06
  1.9487E-06
  1.9485E-06
  7.1882E-06
  7.1882E-06
  7.1881E-06
  7.1882E-06
  7.1882E-06
  7.1882E-06
  7.1882E-06
  7.1882E-06
  7.1882E-06
  2.6611E-05
  2.6611E-05
  2.6611E-05
  2.6611E-05
  2.6611E-05
  2.6611E-05
  2.6611E-05
  2.6611E-05
  2.6611E-05
  9.9239E-05
  9.9239E-05
  9.9239E-05
  9.9239E-05
  9.9239E-05
  9.9239E-05
  9.9239E-05
  9.9239E-05
  9.9239E-05
  3.7052E-04
  3.7052E-04
  3.7052E-04
  3.7052E-04
  3.7052E-04
  3.7052E-04
  3.7052E-04
  3.7052E-04
  3.7052E-04
  1.3833E-03
  1.3833E-03
  1.3833E-03
  1.3833E-03
  1.3833E-03
  1.3833E-03
  1.3833E-03
  1.3833E-03
  1.3833E-03
  5.1644E-03
  5.1644E-03
  5.1644E-03
  5.1644E-03
  5.1644E-03
  5.1644E-03
  5.1644E-03
  5.1644E-03
  5.1644E-03
  1.9280E-02
  1.9280E-02
  1.9280E-02
  1.9280E-02
  1.9280E-02
  1.9280E-02
  1.9280E-02
  1.9280E-02
  1.9280E-02
  7.1979E-02
  7.1979E-02
  7.1979E-02
  7.1979E-02
  7.1979E-02
  7.1979E-02
  7.1979E-02
  7.1979E-02
  7.1979E-02
  2.6868E-01
  2.6868E-01
  2.6868E-01
  2.6868E-01
  2.6868E-01
  2.6868E-01
  2.6868E-01
  2.6868E-01
  2.6868E-01
  4.2382E-01
  4.2382E-01
  4.2382E-01
  4.2382E-01
  4.2382E-01
  4.2382E-01
  4.2382E-01
  4.2382E-01
  4.2382E-01
   1.5600E-02
  2.6219E-15
  3.5283E-15
  4.4347E-15
  1.3110E-15
  2.4095E-15
  3.5081E-15
  0.0000E+00
  1.2907E-15
  2.5815E-15
  7.8282E-15
  1.0580E-14
  1.3332E-14
  3.9141E-15
  7.2405E-15
  1.0567E-14
  0.0000E+00
  3.9008E-15
  7.8015E-15
  3.1291E-14
  4.2349E-14
  5.3406E-14
  1.5646E-14
  2.8991E-14
  4.2337E-14
  0.0000E+00
  1.5634E-14
  3.1268E-14
  1.7852E-13
  2.1240E-13
  2.4627E-13
  8.9262E-14
  1.5082E-13
  2.1239E-13
  0.0000E+00
  8.9251E-14
  1.7850E-13
  7.9676E-13
  9.0437E-13
  1.0120E-12
  3.9838E-13
  6.5138E-13
  9.0437E-13
  0.0000E+00
  3.9838E-13
  7.9676E-13
  2.9516E-12
  3.3464E-12
  3.7412E-12
  1.4758E-12
  2.4111E-12
  3.3464E-12
  0.0000E+00
  1.4758E-12
  2.9517E-12
  1.0818E-11
  1.2311E-11
  1.3803E-11
  5.4092E-12
  8.8601E-12
  1.2311E-11
  0.0000E+00
  5.4092E-12
  1.0818E-11
  3.4088E-08
  3.4087E-08
  3.4086E-08
  3.4086E-08
  3.4087E-08
  3.4087E-08
  3.4085E-08
  3.4086E-08
  3.4088E-08
  1.3632E-07
  1.3630E-07
  1.3629E-07
  1.3633E-07
  1.3632E-07
  1.3630E-07
  1.3634E-07
  1.3633E-07
  1.3632E-07
  5.1119E-07
  5.1116E-07
  5.1112E-07
  5.1123E-07
  5.1119E-07
  5.1116E-07
  5.1127E-07
  5.1123E-07
  5.1119E-07
  1.9736E-06
  1.9735E-06
  1.9734E-06
  1.9737E-06
  1.9736E-06
  1.9735E-06
  1.9739E-06
  1.9737E-06
  1.9736E-06
  7.2807E-06
  7.2807E-06
  7.2807E-06
  7.2808E-06
  7.2807E-06
  7.2807E-06
  7.2808E-06
  7.2808E-06
  7.2807E-06
  2.6954E-05
  2.6954E-05
  2.6954E-05
  2.6954E-05
  2.6954E-05
  2.6954E-05
  2.6954E-05
  2.6954E-05
  2.6954E-05
  1.0052E-04
  1.0052E-04
  1.0052E-04
  1.0052E-04
  1.0052E-04
  1.0052E-04
  1.0052E-04
  1.0052E-04
  1.0052E-04
  3.7531E-04
  3.7531E-04
  3.7531E-04
  3.7531E-04
  3.7531E-04
  3.7531E-04
  3.7531E-04
  3.7531E-04
  3.7531E-04
  1.4012E-03
  1.4012E-03
  1.4012E-03
  1.4012E-03
  1.4012E-03
  1.4012E-03
  1.4012E-03
  1.4012E-03
  1.4012E-03
  5.2311E-03
  5.2311E-03
  5.2311E-03
  5.2311E-03
  5.2311E-03
  5.2311E-03
  5.2311E-03
  5.2311E-03
  5.2311E-03
  1.9529E-02
  1.9529E-02
  1.9529E-02
  1.9529E-02
  1.9529E-02
  1.9529E-02
  1.9529E-02
  1.9529E-02
  1.9529E-02
  7.2910E-02
  7.2910E-02
  7.2910E-02
  7.2910E-02
  7.2910E-02
  7.2910E-02
  7.2910E-02
  7.2910E-02
  7.2910E-02
  2.7216E-01
  2.7216E-01
  2.7216E-01
  2.7216E-01
  2.7216E-01
  2.7216E-01
  2.7216E-01
  2.7216E-01
  2.7216E-01
  4.2930E-01
  4.2930E-01
  4.2930E-01
  4.2930E-01
  4.2930E-01
  4.2930E-01
  4.2930E-01
  4.2930E-01
  4.2930E-01
   1.5700E-02
  2.6896E-15
  3.6196E-15
  4.5496E-15
  1.3448E-15
  2.4720E-15
  3.5991E-15
  0.0000E+00
  1.3243E-15
  2.6486E-15
  8.0307E-15
  1.0854E-14
  1.3677E-14
  4.0154E-15
  7.4280E-15
  1.0841E-14
  0.0000E+00
  4.0018E-15
  8.0037E-15
  3.2101E-14
  4.3445E-14
  5.4788E-14
  1.6050E-14
  2.9742E-14
  4.3433E-14
  0.0000E+00
  1.6039E-14
  3.2077E-14
  1.8124E-13
  2.1612E-13
  2.5099E-13
  9.0619E-14
  1.5336E-13
  2.1610E-13
  0.0000E+00
  9.0608E-14
  1.8122E-13
  8.0634E-13
  9.1756E-13
  1.0288E-12
  4.0317E-13
  6.6037E-13
  9.1756E-13
  0.0000E+00
  4.0317E-13
  8.0633E-13
  3.0242E-12
  3.4301E-12
  3.8360E-12
  1.5121E-12
  2.4711E-12
  3.4301E-12
  0.0000E+00
  1.5121E-12
  3.0243E-12
  1.1090E-11
  1.2622E-11
  1.4153E-11
  5.5452E-12
  9.0835E-12
  1.2622E-11
  0.0000E+00
  5.5452E-12
  1.1090E-11
  3.4527E-08
  3.4525E-08
  3.4524E-08
  3.4525E-08
  3.4525E-08
  3.4525E-08
  3.4523E-08
  3.4525E-08
  3.4527E-08
  1.3807E-07
  1.3806E-07
  1.3805E-07
  1.3808E-07
  1.3807E-07
  1.3806E-07
  1.3809E-07
  1.3808E-07
  1.3807E-07
  5.1777E-07
  5.1773E-07
  5.1769E-07
  5.1781E-07
  5.1777E-07
  5.1773E-07
  5.1785E-07
  5.1781E-07
  5.1777E-07
  1.9988E-06
  1.9987E-06
  1.9986E-06
  1.9990E-06
  1.9988E-06
  1.9987E-06
  1.9991E-06
  1.9990E-06
  1.9988E-06
  7.3739E-06
  7.3739E-06
  7.3738E-06
  7.3739E-06
  7.3739E-06
  7.3739E-06
  7.3739E-06
  7.3739E-06
  7.3739E-06
  2.7300E-05
  2.7300E-05
  2.7300E-05
  2.7300E-05
  2.7300E-05
  2.7300E-05
  2.7300E-05
  2.7300E-05
  2.7300E-05
  1.0181E-04
  1.0181E-04
  1.0181E-04
  1.0181E-04
  1.0181E-04
  1.0181E-04
  1.0181E-04
  1.0181E-04
  1.0181E-04
  3.8013E-04
  3.8013E-04
  3.8013E-04
  3.8013E-04
  3.8013E-04
  3.8013E-04
  3.8013E-04
  3.8013E-04
  3.8013E-04
  1.4192E-03
  1.4192E-03
  1.4192E-03
  1.4192E-03
  1.4192E-03
  1.4192E-03
  1.4192E-03
  1.4192E-03
  1.4192E-03
  5.2983E-03
  5.2983E-03
  5.2983E-03
  5.2983E-03
  5.2983E-03
  5.2983E-03
  5.2983E-03
  5.2983E-03
  5.2983E-03
  1.9780E-02
  1.9780E-02
  1.9780E-02
  1.9780E-02
  1.9780E-02
  1.9780E-02
  1.9780E-02
  1.9780E-02
  1.9780E-02
  7.3847E-02
  7.3847E-02
  7.3847E-02
  7.3847E-02
  7.3847E-02
  7.3847E-02
  7.3847E-02
  7.3847E-02
  7.3847E-02
  2.7566E-01
  2.7566E-01
  2.7566E-01
  2.7566E-01
  2.7566E-01
  2.7566E-01
  2.7566E-01
  2.7566E-01
  2.7566E-01
  4.3482E-01
  4.3482E-01
  4.3482E-01
  4.3482E-01
  4.3482E-01
  4.3482E-01
  4.3482E-01
  4.3482E-01
  4.3482E-01
   1.5800E-02
  2.7585E-15
  3.7127E-15
  4.6668E-15
  1.3793E-15
  2.5356E-15
  3.6919E-15
  0.0000E+00
  1.3585E-15
  2.7171E-15
  8.2371E-15
  1.1133E-14
  1.4029E-14
  4.1186E-15
  7.6191E-15
  1.1120E-14
  0.0000E+00
  4.1049E-15
  8.2097E-15
  3.2926E-14
  4.4562E-14
  5.6197E-14
  1.6463E-14
  3.0506E-14
  4.4550E-14
  0.0000E+00
  1.6451E-14
  3.2902E-14
  1.8401E-13
  2.1992E-13
  2.5582E-13
  9.2007E-14
  1.5596E-13
  2.1991E-13
  0.0000E+00
  9.1996E-14
  1.8399E-13
  8.1615E-13
  9.3109E-13
  1.0460E-12
  4.0807E-13
  6.6958E-13
  9.3109E-13
  0.0000E+00
  4.0807E-13
  8.1615E-13
  3.0609E-12
  3.4807E-12
  3.9004E-12
  1.5305E-12
  2.5056E-12
  3.4807E-12
  0.0000E+00
  1.5305E-12
  3.0610E-12
  1.1374E-11
  1.2948E-11
  1.4521E-11
  5.6872E-12
  9.3175E-12
  1.2948E-11
  0.0000E+00
  5.6873E-12
  1.1375E-11
  3.4968E-08
  3.4967E-08
  3.4965E-08
  3.4966E-08
  3.4966E-08
  3.4967E-08
  3.4964E-08
  3.4966E-08
  3.4968E-08
  1.3983E-07
  1.3982E-07
  1.3981E-07
  1.3985E-07
  1.3983E-07
  1.3982E-07
  1.3986E-07
  1.3985E-07
  1.3983E-07
  5.2438E-07
  5.2434E-07
  5.2430E-07
  5.2442E-07
  5.2438E-07
  5.2434E-07
  5.2446E-07
  5.2442E-07
  5.2438E-07
  2.0242E-06
  2.0241E-06
  2.0240E-06
  2.0244E-06
  2.0242E-06
  2.0241E-06
  2.0245E-06
  2.0244E-06
  2.0242E-06
  7.4676E-06
  7.4676E-06
  7.4676E-06
  7.4676E-06
  7.4676E-06
  7.4676E-06
  7.4677E-06
  7.4676E-06
  7.4676E-06
  2.7648E-05
  2.7648E-05
  2.7648E-05
  2.7648E-05
  2.7648E-05
  2.7648E-05
  2.7647E-05
  2.7648E-05
  2.7648E-05
  1.0311E-04
  1.0311E-04
  1.0311E-04
  1.0311E-04
  1.0311E-04
  1.0311E-04
  1.0311E-04
  1.0311E-04
  1.0311E-04
  3.8498E-04
  3.8498E-04
  3.8498E-04
  3.8498E-04
  3.8498E-04
  3.8498E-04
  3.8498E-04
  3.8498E-04
  3.8498E-04
  1.4373E-03
  1.4373E-03
  1.4373E-03
  1.4373E-03
  1.4373E-03
  1.4373E-03
  1.4373E-03
  1.4373E-03
  1.4373E-03
  5.3660E-03
  5.3660E-03
  5.3660E-03
  5.3660E-03
  5.3660E-03
  5.3660E-03
  5.3660E-03
  5.3660E-03
  5.3660E-03
  2.0033E-02
  2.0033E-02
  2.0033E-02
  2.0033E-02
  2.0033E-02
  2.0033E-02
  2.0033E-02
  2.0033E-02
  2.0033E-02
  7.4790E-02
  7.4790E-02
  7.4790E-02
  7.4790E-02
  7.4790E-02
  7.4790E-02
  7.4790E-02
  7.4790E-02
  7.4790E-02
  2.7918E-01
  2.7918E-01
  2.7918E-01
  2.7918E-01
  2.7918E-01
  2.7918E-01
  2.7918E-01
  2.7918E-01
  2.7918E-01
  4.4038E-01
  4.4038E-01
  4.4038E-01
  4.4038E-01
  4.4038E-01
  4.4038E-01
  4.4038E-01
  4.4038E-01
  4.4038E-01
   1.5900E-02
  2.8288E-15
  3.8075E-15
  4.7863E-15
  1.4144E-15
  2.6005E-15
  3.7865E-15
  0.0000E+00
  1.3934E-15
  2.7868E-15
  8.4475E-15
  1.1418E-14
  1.4388E-14
  4.2237E-15
  7.8138E-15
  1.1404E-14
  0.0000E+00
  4.2099E-15
  8.4197E-15
  3.3767E-14
  4.5700E-14
  5.7633E-14
  1.6884E-14
  3.1286E-14
  4.5688E-14
  0.0000E+00
  1.6871E-14
  3.3743E-14
  1.8686E-13
  2.2381E-13
  2.6076E-13
  9.3428E-14
  1.5861E-13
  2.2380E-13
  0.0000E+00
  9.3416E-14
  1.8683E-13
  8.2621E-13
  9.4494E-13
  1.0637E-12
  4.1310E-13
  6.7902E-13
  9.4494E-13
  0.0000E+00
  4.1310E-13
  8.2621E-13
  3.1350E-12
  3.5664E-12
  3.9978E-12
  1.5675E-12
  2.5670E-12
  3.5665E-12
  0.0000E+00
  1.5675E-12
  3.1351E-12
  1.1652E-11
  1.3266E-11
  1.4880E-11
  5.8258E-12
  9.5458E-12
  1.3266E-11
  0.0000E+00
  5.8259E-12
  1.1652E-11
  3.5412E-08
  3.5411E-08
  3.5409E-08
  3.5410E-08
  3.5410E-08
  3.5411E-08
  3.5408E-08
  3.5410E-08
  3.5412E-08
  1.4161E-07
  1.4160E-07
  1.4158E-07
  1.4162E-07
  1.4161E-07
  1.4160E-07
  1.4163E-07
  1.4162E-07
  1.4161E-07
  5.3104E-07
  5.3100E-07
  5.3096E-07
  5.3108E-07
  5.3104E-07
  5.3100E-07
  5.3112E-07
  5.3108E-07
  5.3104E-07
  2.0498E-06
  2.0496E-06
  2.0495E-06
  2.0499E-06
  2.0498E-06
  2.0496E-06
  2.0501E-06
  2.0499E-06
  2.0498E-06
  7.5619E-06
  7.5619E-06
  7.5619E-06
  7.5619E-06
  7.5619E-06
  7.5619E-06
  7.5620E-06
  7.5619E-06
  7.5619E-06
  2.7998E-05
  2.7998E-05
  2.7998E-05
  2.7998E-05
  2.7998E-05
  2.7998E-05
  2.7997E-05
  2.7998E-05
  2.7998E-05
  1.0442E-04
  1.0442E-04
  1.0442E-04
  1.0442E-04
  1.0442E-04
  1.0442E-04
  1.0442E-04
  1.0442E-04
  1.0442E-04
  3.8986E-04
  3.8986E-04
  3.8986E-04
  3.8986E-04
  3.8986E-04
  3.8986E-04
  3.8986E-04
  3.8986E-04
  3.8986E-04
  1.4555E-03
  1.4555E-03
  1.4555E-03
  1.4555E-03
  1.4555E-03
  1.4555E-03
  1.4555E-03
  1.4555E-03
  1.4555E-03
  5.4340E-03
  5.4340E-03
  5.4340E-03
  5.4340E-03
  5.4340E-03
  5.4340E-03
  5.4340E-03
  5.4340E-03
  5.4340E-03
  2.0287E-02
  2.0287E-02
  2.0287E-02
  2.0287E-02
  2.0287E-02
  2.0287E-02
  2.0287E-02
  2.0287E-02
  2.0287E-02
  7.5740E-02
  7.5740E-02
  7.5740E-02
  7.5740E-02
  7.5740E-02
  7.5740E-02
  7.5740E-02
  7.5740E-02
  7.5740E-02
  2.8272E-01
  2.8272E-01
  2.8272E-01
  2.8272E-01
  2.8272E-01
  2.8272E-01
  2.8272E-01
  2.8272E-01
  2.8272E-01
  4.4597E-01
  4.4597E-01
  4.4597E-01
  4.4597E-01
  4.4597E-01
  4.4597E-01
  4.4597E-01
  4.4597E-01
  4.4597E-01
   1.6000E-02
  2.9004E-15
  3.9042E-15
  4.9080E-15
  1.4502E-15
  2.6666E-15
  3.8829E-15
  0.0000E+00
  1.4289E-15
  2.8579E-15
  8.6618E-15
  1.1708E-14
  1.4754E-14
  4.3309E-15
  8.0123E-15
  1.1694E-14
  0.0000E+00
  4.3169E-15
  8.6337E-15
  3.4624E-14
  4.6860E-14
  5.9096E-14
  1.7312E-14
  3.2080E-14
  4.6848E-14
  0.0000E+00
  1.7300E-14
  3.4600E-14
  1.8976E-13
  2.2778E-13
  2.6581E-13
  9.4880E-14
  1.6133E-13
  2.2777E-13
  0.0000E+00
  9.4869E-14
  1.8974E-13
  8.3651E-13
  9.5913E-13
  1.0817E-12
  4.1826E-13
  6.8869E-13
  9.5913E-13
  0.0000E+00
  4.1826E-13
  8.3651E-13
  3.2099E-12
  3.6533E-12
  4.0966E-12
  1.6050E-12
  2.6291E-12
  3.6533E-12
  0.0000E+00
  1.6050E-12
  3.2100E-12
  1.1932E-11
  1.3588E-11
  1.5244E-11
  5.9658E-12
  9.7768E-12
  1.3588E-11
  0.0000E+00
  5.9658E-12
  1.1932E-11
  3.5859E-08
  3.5857E-08
  3.5856E-08
  3.5857E-08
  3.5857E-08
  3.5857E-08
  3.5855E-08
  3.5857E-08
  3.5859E-08
  1.4340E-07
  1.4338E-07
  1.4337E-07
  1.4341E-07
  1.4340E-07
  1.4338E-07
  1.4342E-07
  1.4341E-07
  1.4340E-07
  5.3774E-07
  5.3770E-07
  5.3766E-07
  5.3778E-07
  5.3774E-07
  5.3770E-07
  5.3783E-07
  5.3778E-07
  5.3774E-07
  2.0755E-06
  2.0753E-06
  2.0752E-06
  2.0756E-06
  2.0755E-06
  2.0753E-06
  2.0758E-06
  2.0756E-06
  2.0755E-06
  7.6568E-06
  7.6568E-06
  7.6567E-06
  7.6568E-06
  7.6568E-06
  7.6568E-06
  7.6568E-06
  7.6568E-06
  7.6568E-06
  2.8350E-05
  2.8350E-05
  2.8350E-05
  2.8350E-05
  2.8350E-05
  2.8350E-05
  2.8350E-05
  2.8350E-05
  2.8350E-05
  1.0573E-04
  1.0573E-04
  1.0573E-04
  1.0573E-04
  1.0573E-04
  1.0573E-04
  1.0573E-04
  1.0573E-04
  1.0573E-04
  3.9477E-04
  3.9477E-04
  3.9477E-04
  3.9477E-04
  3.9477E-04
  3.9477E-04
  3.9477E-04
  3.9477E-04
  3.9477E-04
  1.4739E-03
  1.4739E-03
  1.4739E-03
  1.4739E-03
  1.4739E-03
  1.4739E-03
  1.4739E-03
  1.4739E-03
  1.4739E-03
  5.5025E-03
  5.5025E-03
  5.5025E-03
  5.5025E-03
  5.5025E-03
  5.5025E-03
  5.5025E-03
  5.5025E-03
  5.5025E-03
  2.0542E-02
  2.0542E-02
  2.0542E-02
  2.0542E-02
  2.0542E-02
  2.0542E-02
  2.0542E-02
  2.0542E-02
  2.0542E-02
  7.6695E-02
  7.6695E-02
  7.6695E-02
  7.6695E-02
  7.6695E-02
  7.6695E-02
  7.6695E-02
  7.6695E-02
  7.6695E-02
  2.8629E-01
  2.8629E-01
  2.8629E-01
  2.8629E-01
  2.8629E-01
  2.8629E-01
  2.8629E-01
  2.8629E-01
  2.8629E-01
  4.5159E-01
  4.5159E-01
  4.5159E-01
  4.5159E-01
  4.5159E-01
  4.5159E-01
  4.5159E-01
  4.5159E-01
  4.5159E-01
   1.6100E-02
  2.9734E-15
  4.0027E-15
  5.0320E-15
  1.4867E-15
  2.7339E-15
  3.9811E-15
  0.0000E+00
  1.4652E-15
  2.9303E-15
  8.8802E-15
  1.2003E-14
  1.5126E-14
  4.4401E-15
  8.2145E-15
  1.1989E-14
  0.0000E+00
  4.4259E-15
  8.8518E-15
  3.5498E-14
  4.8042E-14
  6.0587E-14
  1.7749E-14
  3.2889E-14
  4.8030E-14
  0.0000E+00
  1.7736E-14
  3.5473E-14
  1.9273E-13
  2.3185E-13
  2.7096E-13
  9.6365E-14
  1.6410E-13
  2.3184E-13
  0.0000E+00
  9.6354E-14
  1.9271E-13
  8.4707E-13
  9.7365E-13
  1.1002E-12
  4.2354E-13
  6.9859E-13
  9.7365E-13
  0.0000E+00
  4.2354E-13
  8.4707E-13
  3.2490E-12
  3.7071E-12
  4.1652E-12
  1.6245E-12
  2.6658E-12
  3.7071E-12
  0.0000E+00
  1.6245E-12
  3.2491E-12
  1.2224E-11
  1.3925E-11
  1.5626E-11
  6.1119E-12
  1.0018E-11
  1.3925E-11
  0.0000E+00
  6.1119E-12
  1.2224E-11
  3.6309E-08
  3.6307E-08
  3.6306E-08
  3.6307E-08
  3.6307E-08
  3.6307E-08
  3.6305E-08
  3.6307E-08
  3.6309E-08
  1.4519E-07
  1.4518E-07
  1.4517E-07
  1.4521E-07
  1.4519E-07
  1.4518E-07
  1.4522E-07
  1.4521E-07
  1.4519E-07
  5.4448E-07
  5.4444E-07
  5.4440E-07
  5.4453E-07
  5.4448E-07
  5.4444E-07
  5.4457E-07
  5.4453E-07
  5.4448E-07
  2.1013E-06
  2.1012E-06
  2.1011E-06
  2.1015E-06
  2.1013E-06
  2.1012E-06
  2.1016E-06
  2.1015E-06
  2.1013E-06
  7.7523E-06
  7.7522E-06
  7.7522E-06
  7.7523E-06
  7.7523E-06
  7.7522E-06
  7.7523E-06
  7.7523E-06
  7.7523E-06
  2.8704E-05
  2.8704E-05
  2.8704E-05
  2.8704E-05
  2.8704E-05
  2.8704E-05
  2.8704E-05
  2.8704E-05
  2.8704E-05
  1.0705E-04
  1.0705E-04
  1.0705E-04
  1.0705E-04
  1.0705E-04
  1.0705E-04
  1.0705E-04
  1.0705E-04
  1.0705E-04
  3.9971E-04
  3.9971E-04
  3.9971E-04
  3.9971E-04
  3.9971E-04
  3.9971E-04
  3.9971E-04
  3.9971E-04
  3.9971E-04
  1.4923E-03
  1.4923E-03
  1.4923E-03
  1.4923E-03
  1.4923E-03
  1.4923E-03
  1.4923E-03
  1.4923E-03
  1.4923E-03
  5.5714E-03
  5.5714E-03
  5.5714E-03
  5.5714E-03
  5.5714E-03
  5.5714E-03
  5.5714E-03
  5.5714E-03
  5.5714E-03
  2.0800E-02
  2.0800E-02
  2.0800E-02
  2.0800E-02
  2.0800E-02
  2.0800E-02
  2.0800E-02
  2.0800E-02
  2.0800E-02
  7.7656E-02
  7.7656E-02
  7.7656E-02
  7.7656E-02
  7.7656E-02
  7.7656E-02
  7.7656E-02
  7.7656E-02
  7.7656E-02
  2.8988E-01
  2.8988E-01
  2.8988E-01
  2.8988E-01
  2.8988E-01
  2.8988E-01
  2.8988E-01
  2.8988E-01
  2.8988E-01
  4.5725E-01
  4.5725E-01
  4.5725E-01
  4.5725E-01
  4.5725E-01
  4.5725E-01
  4.5725E-01
  4.5725E-01
  4.5725E-01
   1.6200E-02
  3.0477E-15
  4.1030E-15
  5.1583E-15
  1.5239E-15
  2.8025E-15
  4.0812E-15
  0.0000E+00
  1.5021E-15
  3.0041E-15
  9.1027E-15
  1.2304E-14
  1.5505E-14
  4.5513E-15
  8.4205E-15
  1.2290E-14
  0.0000E+00
  4.5370E-15
  9.0739E-15
  3.6387E-14
  4.9247E-14
  6.2106E-14
  1.8194E-14
  3.3714E-14
  4.9234E-14
  0.0000E+00
  1.8181E-14
  3.6362E-14
  1.9577E-13
  2.3600E-13
  2.7623E-13
  9.7884E-14
  1.6694E-13
  2.3599E-13
  0.0000E+00
  9.7872E-14
  1.9574E-13
  8.5788E-13
  9.8852E-13
  1.1192E-12
  4.2894E-13
  7.0873E-13
  9.8852E-13
  0.0000E+00
  4.2894E-13
  8.5788E-13
  3.3255E-12
  3.7961E-12
  4.2667E-12
  1.6628E-12
  2.7294E-12
  3.7961E-12
  0.0000E+00
  1.6628E-12
  3.3255E-12
  1.2509E-11
  1.4254E-11
  1.5999E-11
  6.2546E-12
  1.0254E-11
  1.4254E-11
  0.0000E+00
  6.2546E-12
  1.2509E-11
  3.6761E-08
  3.6759E-08
  3.6758E-08
  3.6759E-08
  3.6759E-08
  3.6759E-08
  3.6757E-08
  3.6759E-08
  3.6761E-08
  1.4700E-07
  1.4699E-07
  1.4698E-07
  1.4702E-07
  1.4700E-07
  1.4699E-07
  1.4703E-07
  1.4702E-07
  1.4700E-07
  5.5127E-07
  5.5122E-07
  5.5118E-07
  5.5131E-07
  5.5127E-07
  5.5122E-07
  5.5136E-07
  5.5131E-07
  5.5127E-07
  2.1274E-06
  2.1272E-06
  2.1271E-06
  2.1275E-06
  2.1274E-06
  2.1272E-06
  2.1276E-06
  2.1275E-06
  2.1274E-06
  7.8483E-06
  7.8483E-06
  7.8483E-06
  7.8483E-06
  7.8483E-06
  7.8483E-06
  7.8484E-06
  7.8483E-06
  7.8483E-06
  2.9061E-05
  2.9061E-05
  2.9061E-05
  2.9061E-05
  2.9061E-05
  2.9061E-05
  2.9061E-05
  2.9061E-05
  2.9061E-05
  1.0838E-04
  1.0838E-04
  1.0838E-04
  1.0838E-04
  1.0838E-04
  1.0838E-04
  1.0838E-04
  1.0838E-04
  1.0838E-04
  4.0468E-04
  4.0468E-04
  4.0468E-04
  4.0468E-04
  4.0468E-04
  4.0468E-04
  4.0468E-04
  4.0468E-04
  4.0468E-04
  1.5109E-03
  1.5109E-03
  1.5109E-03
  1.5109E-03
  1.5109E-03
  1.5109E-03
  1.5109E-03
  1.5109E-03
  1.5109E-03
  5.6407E-03
  5.6407E-03
  5.6407E-03
  5.6407E-03
  5.6407E-03
  5.6407E-03
  5.6407E-03
  5.6407E-03
  5.6407E-03
  2.1059E-02
  2.1059E-02
  2.1059E-02
  2.1059E-02
  2.1059E-02
  2.1059E-02
  2.1059E-02
  2.1059E-02
  2.1059E-02
  7.8623E-02
  7.8623E-02
  7.8623E-02
  7.8623E-02
  7.8623E-02
  7.8623E-02
  7.8623E-02
  7.8623E-02
  7.8623E-02
  2.9349E-01
  2.9349E-01
  2.9349E-01
  2.9349E-01
  2.9349E-01
  2.9349E-01
  2.9349E-01
  2.9349E-01
  2.9349E-01
  4.6295E-01
  4.6295E-01
  4.6295E-01
  4.6295E-01
  4.6295E-01
  4.6295E-01
  4.6295E-01
  4.6295E-01
  4.6295E-01
   1.6300E-02
  3.1234E-15
  4.2052E-15
  5.2870E-15
  1.5617E-15
  2.8724E-15
  4.1832E-15
  0.0000E+00
  1.5396E-15
  3.0793E-15
  9.3294E-15
  1.2611E-14
  1.5892E-14
  4.6647E-15
  8.6304E-15
  1.2596E-14
  0.0000E+00
  4.6501E-15
  9.3002E-15
  3.7294E-14
  5.0473E-14
  6.3653E-14
  1.8647E-14
  3.4554E-14
  5.0461E-14
  0.0000E+00
  1.8634E-14
  3.7268E-14
  1.9887E-13
  2.4024E-13
  2.8162E-13
  9.9435E-14
  1.6983E-13
  2.4023E-13
  0.0000E+00
  9.9424E-14
  1.9885E-13
  8.6895E-13
  1.0037E-12
  1.1385E-12
  4.3448E-13
  7.1911E-13
  1.0037E-12
  0.0000E+00
  4.3448E-13
  8.6895E-13
  3.4028E-12
  3.8863E-12
  4.3697E-12
  1.7014E-12
  2.7938E-12
  3.8863E-12
  0.0000E+00
  1.7014E-12
  3.4029E-12
  1.2871E-11
  1.4656E-11
  1.6441E-11
  6.4353E-12
  1.0545E-11
  1.4656E-11
  0.0000E+00
  6.4354E-12
  1.2871E-11
  3.7216E-08
  3.7215E-08
  3.7213E-08
  3.7214E-08
  3.7215E-08
  3.7215E-08
  3.7212E-08
  3.7214E-08
  3.7216E-08
  1.4882E-07
  1.4881E-07
  1.4880E-07
  1.4884E-07
  1.4882E-07
  1.4881E-07
  1.4885E-07
  1.4884E-07
  1.4882E-07
  5.5809E-07
  5.5805E-07
  5.5800E-07
  5.5814E-07
  5.5809E-07
  5.5805E-07
  5.5818E-07
  5.5814E-07
  5.5809E-07
  2.1535E-06
  2.1534E-06
  2.1532E-06
  2.1537E-06
  2.1535E-06
  2.1534E-06
  2.1538E-06
  2.1537E-06
  2.1535E-06
  7.9449E-06
  7.9449E-06
  7.9449E-06
  7.9450E-06
  7.9449E-06
  7.9449E-06
  7.9450E-06
  7.9450E-06
  7.9449E-06
  2.9419E-05
  2.9419E-05
  2.9419E-05
  2.9419E-05
  2.9419E-05
  2.9419E-05
  2.9419E-05
  2.9419E-05
  2.9419E-05
  1.0972E-04
  1.0972E-04
  1.0972E-04
  1.0972E-04
  1.0972E-04
  1.0972E-04
  1.0972E-04
  1.0972E-04
  1.0972E-04
  4.0968E-04
  4.0968E-04
  4.0968E-04
  4.0968E-04
  4.0968E-04
  4.0968E-04
  4.0968E-04
  4.0968E-04
  4.0968E-04
  1.5296E-03
  1.5296E-03
  1.5296E-03
  1.5296E-03
  1.5296E-03
  1.5296E-03
  1.5296E-03
  1.5296E-03
  1.5296E-03
  5.7105E-03
  5.7105E-03
  5.7105E-03
  5.7105E-03
  5.7105E-03
  5.7105E-03
  5.7105E-03
  5.7105E-03
  5.7105E-03
  2.1319E-02
  2.1319E-02
  2.1319E-02
  2.1319E-02
  2.1319E-02
  2.1319E-02
  2.1319E-02
  2.1319E-02
  2.1319E-02
  7.9596E-02
  7.9596E-02
  7.9596E-02
  7.9596E-02
  7.9596E-02
  7.9596E-02
  7.9596E-02
  7.9596E-02
  7.9596E-02
  2.9712E-01
  2.9712E-01
  2.9712E-01
  2.9712E-01
  2.9712E-01
  2.9712E-01
  2.9712E-01
  2.9712E-01
  2.9712E-01
  4.6868E-01
  4.6868E-01
  4.6868E-01
  4.6868E-01
  4.6868E-01
  4.6868E-01
  4.6868E-01
  4.6868E-01
  4.6868E-01
   1.6400E-02
  3.2006E-15
  4.3093E-15
  5.4181E-15
  1.6003E-15
  2.9436E-15
  4.2870E-15
  0.0000E+00
  1.5779E-15
  3.1559E-15
  9.5602E-15
  1.2923E-14
  1.6286E-14
  4.7801E-15
  8.8441E-15
  1.2908E-14
  0.0000E+00
  4.7654E-15
  9.5307E-15
  3.8217E-14
  5.1723E-14
  6.5229E-14
  1.9108E-14
  3.5409E-14
  5.1710E-14
  0.0000E+00
  1.9096E-14
  3.8191E-14
  2.0204E-13
  2.4458E-13
  2.8711E-13
  1.0102E-13
  1.7279E-13
  2.4457E-13
  0.0000E+00
  1.0101E-13
  2.0202E-13
  8.8029E-13
  1.0193E-12
  1.1583E-12
  4.4014E-13
  7.2973E-13
  1.0193E-12
  0.0000E+00
  4.4014E-13
  8.8029E-13
  3.4810E-12
  3.9775E-12
  4.4741E-12
  1.7405E-12
  2.8590E-12
  3.9775E-12
  0.0000E+00
  1.7405E-12
  3.4810E-12
  1.3162E-11
  1.4993E-11
  1.6824E-11
  6.5808E-12
  1.0787E-11
  1.4993E-11
  0.0000E+00
  6.5809E-12
  1.3162E-11
  3.7674E-08
  3.7673E-08
  3.7671E-08
  3.7672E-08
  3.7673E-08
  3.7673E-08
  3.7670E-08
  3.7672E-08
  3.7674E-08
  1.5065E-07
  1.5064E-07
  1.5063E-07
  1.5067E-07
  1.5065E-07
  1.5064E-07
  1.5068E-07
  1.5067E-07
  1.5065E-07
  5.6496E-07
  5.6491E-07
  5.6487E-07
  5.6501E-07
  5.6496E-07
  5.6491E-07
  5.6505E-07
  5.6501E-07
  5.6496E-07
  2.1799E-06
  2.1797E-06
  2.1795E-06
  2.1800E-06
  2.1799E-06
  2.1797E-06
  2.1802E-06
  2.1800E-06
  2.1799E-06
  8.0422E-06
  8.0421E-06
  8.0421E-06
  8.0422E-06
  8.0422E-06
  8.0421E-06
  8.0422E-06
  8.0422E-06
  8.0422E-06
  2.9780E-05
  2.9780E-05
  2.9780E-05
  2.9780E-05
  2.9780E-05
  2.9780E-05
  2.9780E-05
  2.9780E-05
  2.9780E-05
  1.1107E-04
  1.1107E-04
  1.1107E-04
  1.1107E-04
  1.1107E-04
  1.1107E-04
  1.1107E-04
  1.1107E-04
  1.1107E-04
  4.1471E-04
  4.1471E-04
  4.1471E-04
  4.1471E-04
  4.1471E-04
  4.1471E-04
  4.1471E-04
  4.1471E-04
  4.1471E-04
  1.5483E-03
  1.5483E-03
  1.5483E-03
  1.5483E-03
  1.5483E-03
  1.5483E-03
  1.5483E-03
  1.5483E-03
  1.5483E-03
  5.7807E-03
  5.7807E-03
  5.7807E-03
  5.7807E-03
  5.7807E-03
  5.7807E-03
  5.7807E-03
  5.7807E-03
  5.7807E-03
  2.1581E-02
  2.1581E-02
  2.1581E-02
  2.1581E-02
  2.1581E-02
  2.1581E-02
  2.1581E-02
  2.1581E-02
  2.1581E-02
  8.0575E-02
  8.0575E-02
  8.0575E-02
  8.0575E-02
  8.0575E-02
  8.0575E-02
  8.0575E-02
  8.0575E-02
  8.0575E-02
  3.0078E-01
  3.0078E-01
  3.0078E-01
  3.0078E-01
  3.0078E-01
  3.0078E-01
  3.0078E-01
  3.0078E-01
  3.0078E-01
  4.7445E-01
  4.7445E-01
  4.7445E-01
  4.7445E-01
  4.7445E-01
  4.7445E-01
  4.7445E-01
  4.7445E-01
  4.7445E-01
   1.6500E-02
  3.2791E-15
  4.4154E-15
  5.5516E-15
  1.6395E-15
  3.0161E-15
  4.3927E-15
  0.0000E+00
  1.6169E-15
  3.2338E-15
  9.7953E-15
  1.3241E-14
  1.6687E-14
  4.8977E-15
  9.0618E-15
  1.3226E-14
  0.0000E+00
  4.8827E-15
  9.7655E-15
  3.9157E-14
  5.2995E-14
  6.6833E-14
  1.9579E-14
  3.6280E-14
  5.2982E-14
  0.0000E+00
  1.9566E-14
  3.9131E-14
  2.0528E-13
  2.4901E-13
  2.9273E-13
  1.0264E-13
  1.7582E-13
  2.4899E-13
  0.0000E+00
  1.0263E-13
  2.0526E-13
  8.9188E-13
  1.0352E-12
  1.1786E-12
  4.4594E-13
  7.4059E-13
  1.0352E-12
  0.0000E+00
  4.4594E-13
  8.9188E-13
  3.5599E-12
  4.0699E-12
  4.5799E-12
  1.7800E-12
  2.9250E-12
  4.0699E-12
  0.0000E+00
  1.7800E-12
  3.5600E-12
  1.3529E-11
  1.5402E-11
  1.7275E-11
  6.7644E-12
  1.1083E-11
  1.5402E-11
  0.0000E+00
  6.7645E-12
  1.3529E-11
  3.8135E-08
  3.8134E-08
  3.8132E-08
  3.8133E-08
  3.8134E-08
  3.8134E-08
  3.8131E-08
  3.8133E-08
  3.8135E-08
  1.5250E-07
  1.5248E-07
  1.5247E-07
  1.5251E-07
  1.5250E-07
  1.5248E-07
  1.5252E-07
  1.5251E-07
  1.5250E-07
  5.7187E-07
  5.7182E-07
  5.7177E-07
  5.7192E-07
  5.7187E-07
  5.7182E-07
  5.7197E-07
  5.7192E-07
  5.7187E-07
  2.2063E-06
  2.2062E-06
  2.2060E-06
  2.2065E-06
  2.2063E-06
  2.2062E-06
  2.2067E-06
  2.2065E-06
  2.2063E-06
  8.1399E-06
  8.1399E-06
  8.1399E-06
  8.1400E-06
  8.1399E-06
  8.1399E-06
  8.1400E-06
  8.1400E-06
  8.1399E-06
  3.0143E-05
  3.0143E-05
  3.0143E-05
  3.0143E-05
  3.0143E-05
  3.0143E-05
  3.0143E-05
  3.0143E-05
  3.0143E-05
  1.1243E-04
  1.1243E-04
  1.1243E-04
  1.1243E-04
  1.1243E-04
  1.1243E-04
  1.1243E-04
  1.1243E-04
  1.1243E-04
  4.1977E-04
  4.1977E-04
  4.1977E-04
  4.1977E-04
  4.1977E-04
  4.1977E-04
  4.1977E-04
  4.1977E-04
  4.1977E-04
  1.5673E-03
  1.5673E-03
  1.5673E-03
  1.5673E-03
  1.5673E-03
  1.5673E-03
  1.5673E-03
  1.5673E-03
  1.5673E-03
  5.8513E-03
  5.8513E-03
  5.8513E-03
  5.8513E-03
  5.8513E-03
  5.8513E-03
  5.8513E-03
  5.8513E-03
  5.8513E-03
  2.1845E-02
  2.1845E-02
  2.1845E-02
  2.1845E-02
  2.1845E-02
  2.1845E-02
  2.1845E-02
  2.1845E-02
  2.1845E-02
  8.1560E-02
  8.1560E-02
  8.1560E-02
  8.1560E-02
  8.1560E-02
  8.1560E-02
  8.1560E-02
  8.1560E-02
  8.1560E-02
  3.0445E-01
  3.0445E-01
  3.0445E-01
  3.0445E-01
  3.0445E-01
  3.0445E-01
  3.0445E-01
  3.0445E-01
  3.0445E-01
  4.8025E-01
  4.8025E-01
  4.8025E-01
  4.8025E-01
  4.8025E-01
  4.8025E-01
  4.8025E-01
  4.8025E-01
  4.8025E-01
   1.6600E-02
  3.3591E-15
  4.5233E-15
  5.6876E-15
  1.6795E-15
  3.0900E-15
  4.5004E-15
  0.0000E+00
  1.6566E-15
  3.3133E-15
  1.0035E-14
  1.3565E-14
  1.7095E-14
  5.0174E-15
  9.2835E-15
  1.3550E-14
  0.0000E+00
  5.0023E-15
  1.0005E-14
  4.0115E-14
  5.4291E-14
  6.8468E-14
  2.0057E-14
  3.7168E-14
  5.4278E-14
  0.0000E+00
  2.0044E-14
  4.0088E-14
  2.0859E-13
  2.5353E-13
  2.9846E-13
  1.0430E-13
  1.7890E-13
  2.5351E-13
  0.0000E+00
  1.0428E-13
  2.0857E-13
  9.7655E-13
  1.1192E-12
  1.2619E-12
  4.8828E-13
  8.0374E-13
  1.1192E-12
  0.0000E+00
  4.8828E-13
  9.7655E-13
  3.7299E-12
  4.2418E-12
  4.7538E-12
  1.8649E-12
  3.0534E-12
  4.2418E-12
  0.0000E+00
  1.8649E-12
  3.7299E-12
  1.3816E-11
  1.5735E-11
  1.7654E-11
  6.9079E-12
  1.1322E-11
  1.5735E-11
  0.0000E+00
  6.9079E-12
  1.3816E-11
  3.8599E-08
  3.8597E-08
  3.8596E-08
  3.8597E-08
  3.8597E-08
  3.8597E-08
  3.8595E-08
  3.8597E-08
  3.8599E-08
  1.5435E-07
  1.5433E-07
  1.5432E-07
  1.5436E-07
  1.5435E-07
  1.5433E-07
  1.5438E-07
  1.5436E-07
  1.5435E-07
  5.7882E-07
  5.7877E-07
  5.7872E-07
  5.7887E-07
  5.7882E-07
  5.7877E-07
  5.7892E-07
  5.7887E-07
  5.7882E-07
  2.2330E-06
  2.2328E-06
  2.2327E-06
  2.2331E-06
  2.2330E-06
  2.2328E-06
  2.2333E-06
  2.2331E-06
  2.2330E-06
  8.2383E-06
  8.2383E-06
  8.2383E-06
  8.2383E-06
  8.2383E-06
  8.2383E-06
  8.2384E-06
  8.2383E-06
  8.2383E-06
  3.0509E-05
  3.0509E-05
  3.0509E-05
  3.0509E-05
  3.0509E-05
  3.0509E-05
  3.0509E-05
  3.0509E-05
  3.0509E-05
  1.1379E-04
  1.1379E-04
  1.1379E-04
  1.1379E-04
  1.1379E-04
  1.1379E-04
  1.1379E-04
  1.1379E-04
  1.1379E-04
  4.2486E-04
  4.2486E-04
  4.2486E-04
  4.2486E-04
  4.2486E-04
  4.2486E-04
  4.2486E-04
  4.2486E-04
  4.2486E-04
  1.5863E-03
  1.5863E-03
  1.5863E-03
  1.5863E-03
  1.5863E-03
  1.5863E-03
  1.5863E-03
  1.5863E-03
  1.5863E-03
  5.9223E-03
  5.9223E-03
  5.9223E-03
  5.9223E-03
  5.9223E-03
  5.9223E-03
  5.9223E-03
  5.9223E-03
  5.9223E-03
  2.2110E-02
  2.2110E-02
  2.2110E-02
  2.2110E-02
  2.2110E-02
  2.2110E-02
  2.2110E-02
  2.2110E-02
  2.2110E-02
  8.2551E-02
  8.2551E-02
  8.2551E-02
  8.2551E-02
  8.2551E-02
  8.2551E-02
  8.2551E-02
  8.2551E-02
  8.2551E-02
  3.0815E-01
  3.0815E-01
  3.0815E-01
  3.0815E-01
  3.0815E-01
  3.0815E-01
  3.0815E-01
  3.0815E-01
  3.0815E-01
  4.8609E-01
  4.8609E-01
  4.8609E-01
  4.8609E-01
  4.8609E-01
  4.8609E-01
  4.8609E-01
  4.8609E-01
  4.8609E-01
   1.6700E-02
  3.4405E-15
  4.6333E-15
  5.8261E-15
  1.7202E-15
  3.1652E-15
  4.6101E-15
  0.0000E+00
  1.6971E-15
  3.3941E-15
  1.0279E-14
  1.3895E-14
  1.7511E-14
  5.1393E-15
  9.5093E-15
  1.3879E-14
  0.0000E+00
  5.1240E-15
  1.0248E-14
  4.1089E-14
  5.5611E-14
  7.0132E-14
  2.0545E-14
  3.8071E-14
  5.5597E-14
  0.0000E+00
  2.0531E-14
  4.1063E-14
  2.4842E-13
  2.9205E-13
  3.3567E-13
  1.2421E-13
  2.0812E-13
  2.9204E-13
  0.0000E+00
  1.2420E-13
  2.4840E-13
  1.0518E-12
  1.1917E-12
  1.3317E-12
  5.2588E-13
  8.5880E-13
  1.1917E-12
  0.0000E+00
  5.2588E-13
  1.0518E-12
  3.8369E-12
  4.3582E-12
  4.8795E-12
  1.9184E-12
  3.1383E-12
  4.3582E-12
  0.0000E+00
  1.9185E-12
  3.8369E-12
  1.4189E-11
  1.6152E-11
  1.8116E-11
  7.0943E-12
  1.1623E-11
  1.6152E-11
  0.0000E+00
  7.0943E-12
  1.4189E-11
  3.9066E-08
  3.9064E-08
  3.9062E-08
  3.9063E-08
  3.9064E-08
  3.9064E-08
  3.9061E-08
  3.9063E-08
  3.9066E-08
  1.5621E-07
  1.5620E-07
  1.5618E-07
  1.5623E-07
  1.5621E-07
  1.5620E-07
  1.5624E-07
  1.5623E-07
  1.5621E-07
  5.8582E-07
  5.8576E-07
  5.8571E-07
  5.8587E-07
  5.8581E-07
  5.8576E-07
  5.8592E-07
  5.8587E-07
  5.8582E-07
  2.2598E-06
  2.2596E-06
  2.2595E-06
  2.2600E-06
  2.2598E-06
  2.2596E-06
  2.2601E-06
  2.2600E-06
  2.2598E-06
  8.3373E-06
  8.3373E-06
  8.3372E-06
  8.3373E-06
  8.3373E-06
  8.3373E-06
  8.3373E-06
  8.3373E-06
  8.3373E-06
  3.0876E-05
  3.0876E-05
  3.0876E-05
  3.0876E-05
  3.0876E-05
  3.0876E-05
  3.0876E-05
  3.0876E-05
  3.0876E-05
  1.1516E-04
  1.1516E-04
  1.1516E-04
  1.1516E-04
  1.1516E-04
  1.1516E-04
  1.1516E-04
  1.1516E-04
  1.1516E-04
  4.2999E-04
  4.2999E-04
  4.2999E-04
  4.2999E-04
  4.2999E-04
  4.2999E-04
  4.2999E-04
  4.2999E-04
  4.2999E-04
  1.6054E-03
  1.6054E-03
  1.6054E-03
  1.6054E-03
  1.6054E-03
  1.6054E-03
  1.6054E-03
  1.6054E-03
  1.6054E-03
  5.9938E-03
  5.9938E-03
  5.9938E-03
  5.9938E-03
  5.9938E-03
  5.9938E-03
  5.9938E-03
  5.9938E-03
  5.9938E-03
  2.2377E-02
  2.2377E-02
  2.2377E-02
  2.2377E-02
  2.2377E-02
  2.2377E-02
  2.2377E-02
  2.2377E-02
  2.2377E-02
  8.3548E-02
  8.3548E-02
  8.3548E-02
  8.3548E-02
  8.3548E-02
  8.3548E-02
  8.3548E-02
  8.3548E-02
  8.3548E-02
  3.1188E-01
  3.1188E-01
  3.1188E-01
  3.1188E-01
  3.1188E-01
  3.1188E-01
  3.1188E-01
  3.1188E-01
  3.1188E-01
  4.9196E-01
  4.9196E-01
  4.9196E-01
  4.9196E-01
  4.9196E-01
  4.9196E-01
  4.9196E-01
  4.9196E-01
  4.9196E-01
   1.6800E-02
  3.5234E-15
  4.7452E-15
  5.9670E-15
  1.7617E-15
  3.2417E-15
  4.7217E-15
  0.0000E+00
  1.7382E-15
  3.4765E-15
  1.0527E-14
  1.4230E-14
  1.7934E-14
  5.2634E-15
  9.7391E-15
  1.4215E-14
  0.0000E+00
  5.2479E-15
  1.0496E-14
  4.2082E-14
  5.6954E-14
  7.1826E-14
  2.1041E-14
  3.8991E-14
  5.6941E-14
  0.0000E+00
  2.1028E-14
  4.2055E-14
  2.5168E-13
  2.9652E-13
  3.4135E-13
  1.2584E-13
  2.1117E-13
  2.9651E-13
  0.0000E+00
  1.2583E-13
  2.5166E-13
  1.0635E-12
  1.2079E-12
  1.3523E-12
  5.3173E-13
  8.6980E-13
  1.2079E-12
  0.0000E+00
  5.3173E-13
  1.0635E-12
  3.9177E-12
  4.4532E-12
  4.9887E-12
  1.9588E-12
  3.2060E-12
  4.4532E-12
  0.0000E+00
  1.9589E-12
  3.9177E-12
  1.4491E-11
  1.6505E-11
  1.8519E-11
  7.2455E-12
  1.1875E-11
  1.6505E-11
  0.0000E+00
  7.2455E-12
  1.4491E-11
  3.9535E-08
  3.9533E-08
  3.9531E-08
  3.9533E-08
  3.9533E-08
  3.9533E-08
  3.9530E-08
  3.9533E-08
  3.9535E-08
  1.5809E-07
  1.5808E-07
  1.5806E-07
  1.5811E-07
  1.5809E-07
  1.5808E-07
  1.5812E-07
  1.5811E-07
  1.5809E-07
  5.9285E-07
  5.9280E-07
  5.9275E-07
  5.9290E-07
  5.9285E-07
  5.9280E-07
  5.9295E-07
  5.9290E-07
  5.9285E-07
  2.2867E-06
  2.2866E-06
  2.2864E-06
  2.2869E-06
  2.2867E-06
  2.2866E-06
  2.2871E-06
  2.2869E-06
  2.2867E-06
  8.4368E-06
  8.4368E-06
  8.4368E-06
  8.4368E-06
  8.4368E-06
  8.4368E-06
  8.4369E-06
  8.4368E-06
  8.4368E-06
  3.1246E-05
  3.1246E-05
  3.1246E-05
  3.1246E-05
  3.1246E-05
  3.1246E-05
  3.1246E-05
  3.1246E-05
  3.1246E-05
  1.1654E-04
  1.1654E-04
  1.1654E-04
  1.1654E-04
  1.1654E-04
  1.1654E-04
  1.1654E-04
  1.1654E-04
  1.1654E-04
  4.3514E-04
  4.3514E-04
  4.3514E-04
  4.3514E-04
  4.3514E-04
  4.3514E-04
  4.3514E-04
  4.3514E-04
  4.3514E-04
  1.6247E-03
  1.6247E-03
  1.6247E-03
  1.6247E-03
  1.6247E-03
  1.6247E-03
  1.6247E-03
  1.6247E-03
  1.6247E-03
  6.0657E-03
  6.0657E-03
  6.0657E-03
  6.0657E-03
  6.0657E-03
  6.0657E-03
  6.0657E-03
  6.0657E-03
  6.0657E-03
  2.2646E-02
  2.2646E-02
  2.2646E-02
  2.2646E-02
  2.2646E-02
  2.2646E-02
  2.2646E-02
  2.2646E-02
  2.2646E-02
  8.4551E-02
  8.4551E-02
  8.4551E-02
  8.4551E-02
  8.4551E-02
  8.4551E-02
  8.4551E-02
  8.4551E-02
  8.4551E-02
  3.1562E-01
  3.1562E-01
  3.1562E-01
  3.1562E-01
  3.1562E-01
  3.1562E-01
  3.1562E-01
  3.1562E-01
  3.1562E-01
  4.9786E-01
  4.9786E-01
  4.9786E-01
  4.9786E-01
  4.9786E-01
  4.9786E-01
  4.9786E-01
  4.9786E-01
  4.9786E-01
   1.6900E-02
  3.6078E-15
  4.8592E-15
  6.1105E-15
  1.8039E-15
  3.3197E-15
  4.8354E-15
  0.0000E+00
  1.7802E-15
  3.5603E-15
  1.0779E-14
  1.4572E-14
  1.8365E-14
  5.3897E-15
  9.9731E-15
  1.4556E-14
  0.0000E+00
  5.3741E-15
  1.0748E-14
  4.3092E-14
  5.8321E-14
  7.3551E-14
  2.1546E-14
  3.9927E-14
  5.8308E-14
  0.0000E+00
  2.1533E-14
  4.3065E-14
  2.5501E-13
  3.0108E-13
  3.4716E-13
  1.2750E-13
  2.1429E-13
  3.0107E-13
  0.0000E+00
  1.2749E-13
  2.5499E-13
  1.0755E-12
  1.2244E-12
  1.3733E-12
  5.3773E-13
  8.8106E-13
  1.2244E-12
  0.0000E+00
  5.3773E-13
  1.0755E-12
  3.9994E-12
  4.5494E-12
  5.0994E-12
  1.9997E-12
  3.2745E-12
  4.5494E-12
  0.0000E+00
  1.9997E-12
  3.9994E-12
  1.4870E-11
  1.6930E-11
  1.8991E-11
  7.4349E-12
  1.2183E-11
  1.6930E-11
  0.0000E+00
  7.4349E-12
  1.4870E-11
  4.0007E-08
  4.0005E-08
  4.0003E-08
  4.0005E-08
  4.0005E-08
  4.0005E-08
  4.0002E-08
  4.0005E-08
  4.0007E-08
  1.5998E-07
  1.5996E-07
  1.5995E-07
  1.5999E-07
  1.5998E-07
  1.5996E-07
  1.6001E-07
  1.5999E-07
  1.5998E-07
  5.9993E-07
  5.9988E-07
  5.9982E-07
  5.9998E-07
  5.9993E-07
  5.9988E-07
  6.0003E-07
  5.9998E-07
  5.9993E-07
  2.3139E-06
  2.3137E-06
  2.3135E-06
  2.3140E-06
  2.3139E-06
  2.3137E-06
  2.3142E-06
  2.3140E-06
  2.3139E-06
  8.5369E-06
  8.5369E-06
  8.5369E-06
  8.5370E-06
  8.5369E-06
  8.5369E-06
  8.5370E-06
  8.5370E-06
  8.5369E-06
  3.1618E-05
  3.1618E-05
  3.1618E-05
  3.1618E-05
  3.1618E-05
  3.1618E-05
  3.1617E-05
  3.1618E-05
  3.1618E-05
  1.1793E-04
  1.1793E-04
  1.1793E-04
  1.1793E-04
  1.1793E-04
  1.1793E-04
  1.1793E-04
  1.1793E-04
  1.1793E-04
  4.4032E-04
  4.4033E-04
  4.4033E-04
  4.4032E-04
  4.4032E-04
  4.4033E-04
  4.4032E-04
  4.4032E-04
  4.4032E-04
  1.6440E-03
  1.6440E-03
  1.6440E-03
  1.6440E-03
  1.6440E-03
  1.6440E-03
  1.6440E-03
  1.6440E-03
  1.6440E-03
  6.1380E-03
  6.1380E-03
  6.1380E-03
  6.1380E-03
  6.1380E-03
  6.1380E-03
  6.1380E-03
  6.1380E-03
  6.1380E-03
  2.2916E-02
  2.2916E-02
  2.2916E-02
  2.2916E-02
  2.2916E-02
  2.2916E-02
  2.2916E-02
  2.2916E-02
  2.2916E-02
  8.5559E-02
  8.5559E-02
  8.5559E-02
  8.5559E-02
  8.5559E-02
  8.5559E-02
  8.5559E-02
  8.5559E-02
  8.5559E-02
  3.1939E-01
  3.1939E-01
  3.1939E-01
  3.1939E-01
  3.1939E-01
  3.1939E-01
  3.1939E-01
  3.1939E-01
  3.1939E-01
  5.0381E-01
  5.0381E-01
  5.0381E-01
  5.0381E-01
  5.0381E-01
  5.0381E-01
  5.0381E-01
  5.0381E-01
  5.0381E-01
   1.7000E-02
  3.6937E-15
  4.9751E-15
  6.2566E-15
  1.8468E-15
  3.3990E-15
  4.9511E-15
  0.0000E+00
  1.8228E-15
  3.6457E-15
  1.1037E-14
  1.4920E-14
  1.8803E-14
  5.5183E-15
  1.0211E-14
  1.4904E-14
  0.0000E+00
  5.5025E-15
  1.1005E-14
  4.4121E-14
  5.9713E-14
  7.5306E-14
  2.2060E-14
  4.0880E-14
  5.9700E-14
  0.0000E+00
  2.2047E-14
  4.4093E-14
  2.5841E-13
  3.0575E-13
  3.5308E-13
  1.2921E-13
  2.1747E-13
  3.0574E-13
  0.0000E+00
  1.2919E-13
  2.5839E-13
  1.0877E-12
  1.2413E-12
  1.3949E-12
  5.4386E-13
  8.9258E-13
  1.2413E-12
  0.0000E+00
  5.4386E-13
  1.0877E-12
  4.0819E-12
  4.6468E-12
  5.2116E-12
  2.0410E-12
  3.3439E-12
  4.6468E-12
  0.0000E+00
  2.0410E-12
  4.0820E-12
  1.5252E-11
  1.7360E-11
  1.9468E-11
  7.6258E-12
  1.2493E-11
  1.7360E-11
  0.0000E+00
  7.6258E-12
  1.5252E-11
  4.0482E-08
  4.0480E-08
  4.0478E-08
  4.0479E-08
  4.0480E-08
  4.0480E-08
  4.0477E-08
  4.0479E-08
  4.0482E-08
  1.6188E-07
  1.6186E-07
  1.6184E-07
  1.6189E-07
  1.6188E-07
  1.6186E-07
  1.6191E-07
  1.6189E-07
  1.6188E-07
  6.0705E-07
  6.0699E-07
  6.0694E-07
  6.0710E-07
  6.0705E-07
  6.0699E-07
  6.0716E-07
  6.0710E-07
  6.0705E-07
  2.3411E-06
  2.3409E-06
  2.3408E-06
  2.3413E-06
  2.3411E-06
  2.3409E-06
  2.3415E-06
  2.3413E-06
  2.3411E-06
  8.6376E-06
  8.6376E-06
  8.6376E-06
  8.6377E-06
  8.6376E-06
  8.6376E-06
  8.6377E-06
  8.6377E-06
  8.6376E-06
  3.1992E-05
  3.1992E-05
  3.1992E-05
  3.1992E-05
  3.1992E-05
  3.1992E-05
  3.1991E-05
  3.1992E-05
  3.1992E-05
  1.1932E-04
  1.1932E-04
  1.1932E-04
  1.1932E-04
  1.1932E-04
  1.1932E-04
  1.1932E-04
  1.1932E-04
  1.1932E-04
  4.4554E-04
  4.4554E-04
  4.4554E-04
  4.4554E-04
  4.4554E-04
  4.4554E-04
  4.4554E-04
  4.4554E-04
  4.4554E-04
  1.6635E-03
  1.6635E-03
  1.6635E-03
  1.6635E-03
  1.6635E-03
  1.6635E-03
  1.6635E-03
  1.6635E-03
  1.6635E-03
  6.2107E-03
  6.2107E-03
  6.2107E-03
  6.2107E-03
  6.2107E-03
  6.2107E-03
  6.2107E-03
  6.2107E-03
  6.2107E-03
  2.3188E-02
  2.3188E-02
  2.3188E-02
  2.3188E-02
  2.3188E-02
  2.3188E-02
  2.3188E-02
  2.3188E-02
  2.3188E-02
  8.6574E-02
  8.6574E-02
  8.6574E-02
  8.6574E-02
  8.6574E-02
  8.6574E-02
  8.6574E-02
  8.6574E-02
  8.6574E-02
  3.2318E-01
  3.2318E-01
  3.2318E-01
  3.2318E-01
  3.2318E-01
  3.2318E-01
  3.2318E-01
  3.2318E-01
  3.2318E-01
  5.0978E-01
  5.0978E-01
  5.0978E-01
  5.0978E-01
  5.0978E-01
  5.0978E-01
  5.0978E-01
  5.0978E-01
  5.0978E-01
   1.7100E-02
  3.7811E-15
  5.0932E-15
  6.4052E-15
  1.8906E-15
  3.4797E-15
  5.0689E-15
  0.0000E+00
  1.8663E-15
  3.7325E-15
  1.1298E-14
  1.5274E-14
  1.9250E-14
  5.6491E-15
  1.0454E-14
  1.5258E-14
  0.0000E+00
  5.6332E-15
  1.1266E-14
  4.5167E-14
  6.1130E-14
  7.7093E-14
  2.2584E-14
  4.1850E-14
  6.1116E-14
  0.0000E+00
  2.2570E-14
  4.5140E-14
  2.6189E-13
  3.1051E-13
  3.5914E-13
  1.3094E-13
  2.2072E-13
  3.1050E-13
  0.0000E+00
  1.3093E-13
  2.6186E-13
  1.1003E-12
  1.2586E-12
  1.4169E-12
  5.5014E-13
  9.0436E-13
  1.2586E-12
  0.0000E+00
  5.5014E-13
  1.1003E-12
  4.1654E-12
  4.7454E-12
  5.3254E-12
  2.0827E-12
  3.4141E-12
  4.7454E-12
  0.0000E+00
  2.0827E-12
  4.1654E-12
  1.5563E-11
  1.7725E-11
  1.9887E-11
  7.7816E-12
  1.2753E-11
  1.7725E-11
  0.0000E+00
  7.7816E-12
  1.5563E-11
  4.0960E-08
  4.0958E-08
  4.0956E-08
  4.0957E-08
  4.0957E-08
  4.0958E-08
  4.0955E-08
  4.0957E-08
  4.0960E-08
  1.6379E-07
  1.6377E-07
  1.6375E-07
  1.6380E-07
  1.6379E-07
  1.6377E-07
  1.6382E-07
  1.6380E-07
  1.6379E-07
  6.1421E-07
  6.1415E-07
  6.1410E-07
  6.1426E-07
  6.1421E-07
  6.1415E-07
  6.1432E-07
  6.1426E-07
  6.1421E-07
  2.3685E-06
  2.3684E-06
  2.3682E-06
  2.3687E-06
  2.3685E-06
  2.3684E-06
  2.3689E-06
  2.3687E-06
  2.3685E-06
  8.7389E-06
  8.7389E-06
  8.7389E-06
  8.7389E-06
  8.7389E-06
  8.7389E-06
  8.7390E-06
  8.7389E-06
  8.7389E-06
  3.2368E-05
  3.2368E-05
  3.2368E-05
  3.2368E-05
  3.2368E-05
  3.2368E-05
  3.2368E-05
  3.2368E-05
  3.2368E-05
  1.2073E-04
  1.2073E-04
  1.2073E-04
  1.2073E-04
  1.2073E-04
  1.2073E-04
  1.2073E-04
  1.2073E-04
  1.2073E-04
  4.5078E-04
  4.5078E-04
  4.5078E-04
  4.5078E-04
  4.5078E-04
  4.5078E-04
  4.5078E-04
  4.5078E-04
  4.5078E-04
  1.6831E-03
  1.6831E-03
  1.6831E-03
  1.6831E-03
  1.6831E-03
  1.6831E-03
  1.6831E-03
  1.6831E-03
  1.6831E-03
  6.2839E-03
  6.2839E-03
  6.2839E-03
  6.2839E-03
  6.2839E-03
  6.2839E-03
  6.2839E-03
  6.2839E-03
  6.2839E-03
  2.3461E-02
  2.3461E-02
  2.3461E-02
  2.3461E-02
  2.3461E-02
  2.3461E-02
  2.3461E-02
  2.3461E-02
  2.3461E-02
  8.7595E-02
  8.7595E-02
  8.7595E-02
  8.7595E-02
  8.7595E-02
  8.7595E-02
  8.7595E-02
  8.7595E-02
  8.7595E-02
  3.2699E-01
  3.2699E-01
  3.2699E-01
  3.2699E-01
  3.2699E-01
  3.2699E-01
  3.2699E-01
  3.2699E-01
  3.2699E-01
  5.1580E-01
  5.1580E-01
  5.1580E-01
  5.1580E-01
  5.1580E-01
  5.1580E-01
  5.1580E-01
  5.1580E-01
  5.1580E-01
   1.7200E-02
  3.8701E-15
  5.2133E-15
  6.5565E-15
  1.9350E-15
  3.5619E-15
  5.1887E-15
  0.0000E+00
  1.9105E-15
  3.8209E-15
  1.1565E-14
  1.5634E-14
  1.9704E-14
  5.7823E-15
  1.0700E-14
  1.5618E-14
  0.0000E+00
  5.7662E-15
  1.1532E-14
  4.6233E-14
  6.2572E-14
  7.8911E-14
  2.3116E-14
  4.2837E-14
  6.2558E-14
  0.0000E+00
  2.3102E-14
  4.6205E-14
  2.6543E-13
  3.1537E-13
  3.6531E-13
  1.3272E-13
  2.2404E-13
  3.1536E-13
  0.0000E+00
  1.3271E-13
  2.6541E-13
  1.1131E-12
  1.2763E-12
  1.4394E-12
  5.5656E-13
  9.1641E-13
  1.2763E-12
  0.0000E+00
  5.5656E-13
  1.1131E-12
  4.2498E-12
  4.8453E-12
  5.4408E-12
  2.1249E-12
  3.4851E-12
  4.8453E-12
  0.0000E+00
  2.1249E-12
  4.2498E-12
  1.5951E-11
  1.8163E-11
  2.0375E-11
  7.9755E-12
  1.3069E-11
  1.8163E-11
  0.0000E+00
  7.9756E-12
  1.5951E-11
  4.1440E-08
  4.1438E-08
  4.1436E-08
  4.1438E-08
  4.1438E-08
  4.1438E-08
  4.1435E-08
  4.1438E-08
  4.1440E-08
  1.6571E-07
  1.6569E-07
  1.6567E-07
  1.6572E-07
  1.6571E-07
  1.6569E-07
  1.6574E-07
  1.6572E-07
  1.6571E-07
  6.2141E-07
  6.2136E-07
  6.2130E-07
  6.2147E-07
  6.2141E-07
  6.2136E-07
  6.2153E-07
  6.2147E-07
  6.2141E-07
  2.3961E-06
  2.3959E-06
  2.3958E-06
  2.3963E-06
  2.3961E-06
  2.3959E-06
  2.3965E-06
  2.3963E-06
  2.3961E-06
  8.8408E-06
  8.8408E-06
  8.8408E-06
  8.8408E-06
  8.8408E-06
  8.8408E-06
  8.8408E-06
  8.8408E-06
  8.8408E-06
  3.2746E-05
  3.2746E-05
  3.2746E-05
  3.2746E-05
  3.2746E-05
  3.2746E-05
  3.2746E-05
  3.2746E-05
  3.2746E-05
  1.2214E-04
  1.2214E-04
  1.2214E-04
  1.2214E-04
  1.2214E-04
  1.2214E-04
  1.2214E-04
  1.2214E-04
  1.2214E-04
  4.5606E-04
  4.5606E-04
  4.5606E-04
  4.5606E-04
  4.5606E-04
  4.5606E-04
  4.5606E-04
  4.5606E-04
  4.5606E-04
  1.7028E-03
  1.7028E-03
  1.7028E-03
  1.7028E-03
  1.7028E-03
  1.7028E-03
  1.7028E-03
  1.7028E-03
  1.7028E-03
  6.3575E-03
  6.3575E-03
  6.3575E-03
  6.3575E-03
  6.3575E-03
  6.3575E-03
  6.3575E-03
  6.3575E-03
  6.3575E-03
  2.3736E-02
  2.3736E-02
  2.3736E-02
  2.3736E-02
  2.3736E-02
  2.3736E-02
  2.3736E-02
  2.3736E-02
  2.3736E-02
  8.8622E-02
  8.8622E-02
  8.8622E-02
  8.8622E-02
  8.8622E-02
  8.8622E-02
  8.8622E-02
  8.8622E-02
  8.8622E-02
  3.3082E-01
  3.3082E-01
  3.3082E-01
  3.3082E-01
  3.3082E-01
  3.3082E-01
  3.3082E-01
  3.3082E-01
  3.3082E-01
  5.2184E-01
  5.2184E-01
  5.2184E-01
  5.2184E-01
  5.2184E-01
  5.2184E-01
  5.2184E-01
  5.2184E-01
  5.2184E-01
   1.7300E-02
  3.9606E-15
  5.3355E-15
  6.7105E-15
  1.9803E-15
  3.6455E-15
  5.3107E-15
  0.0000E+00
  1.9554E-15
  3.9109E-15
  1.1836E-14
  1.6001E-14
  2.0166E-14
  5.9179E-15
  1.0951E-14
  1.5985E-14
  0.0000E+00
  5.9015E-15
  1.1803E-14
  4.7316E-14
  6.4039E-14
  8.0762E-14
  2.3658E-14
  4.3842E-14
  6.4025E-14
  0.0000E+00
  2.3644E-14
  4.7288E-14
  2.6906E-13
  3.2034E-13
  3.7162E-13
  1.3453E-13
  2.2743E-13
  3.2033E-13
  0.0000E+00
  1.3452E-13
  2.6903E-13
  1.1262E-12
  1.2943E-12
  1.4624E-12
  5.6312E-13
  9.2872E-13
  1.2943E-12
  0.0000E+00
  5.6312E-13
  1.1262E-12
  4.3350E-12
  4.9464E-12
  5.5577E-12
  2.1675E-12
  3.5570E-12
  4.9464E-12
  0.0000E+00
  2.1675E-12
  4.3351E-12
  1.6342E-11
  1.8605E-11
  2.0869E-11
  8.1711E-12
  1.3388E-11
  1.8605E-11
  0.0000E+00
  8.1711E-12
  1.6342E-11
  4.1924E-08
  4.1922E-08
  4.1919E-08
  4.1921E-08
  4.1921E-08
  4.1922E-08
  4.1918E-08
  4.1921E-08
  4.1924E-08
  1.6764E-07
  1.6762E-07
  1.6760E-07
  1.6766E-07
  1.6764E-07
  1.6762E-07
  1.6767E-07
  1.6766E-07
  1.6764E-07
  6.2866E-07
  6.2860E-07
  6.2854E-07
  6.2872E-07
  6.2866E-07
  6.2860E-07
  6.2877E-07
  6.2872E-07
  6.2866E-07
  2.4239E-06
  2.4237E-06
  2.4235E-06
  2.4241E-06
  2.4239E-06
  2.4237E-06
  2.4243E-06
  2.4241E-06
  2.4239E-06
  8.9432E-06
  8.9432E-06
  8.9432E-06
  8.9432E-06
  8.9432E-06
  8.9432E-06
  8.9433E-06
  8.9432E-06
  8.9432E-06
  3.3127E-05
  3.3127E-05
  3.3127E-05
  3.3127E-05
  3.3127E-05
  3.3127E-05
  3.3126E-05
  3.3127E-05
  3.3127E-05
  1.2356E-04
  1.2356E-04
  1.2356E-04
  1.2356E-04
  1.2356E-04
  1.2356E-04
  1.2356E-04
  1.2356E-04
  1.2356E-04
  4.6137E-04
  4.6137E-04
  4.6137E-04
  4.6137E-04
  4.6137E-04
  4.6137E-04
  4.6137E-04
  4.6137E-04
  4.6137E-04
  1.7226E-03
  1.7226E-03
  1.7226E-03
  1.7226E-03
  1.7226E-03
  1.7226E-03
  1.7226E-03
  1.7226E-03
  1.7226E-03
  6.4315E-03
  6.4315E-03
  6.4315E-03
  6.4315E-03
  6.4315E-03
  6.4315E-03
  6.4315E-03
  6.4315E-03
  6.4315E-03
  2.4012E-02
  2.4012E-02
  2.4012E-02
  2.4012E-02
  2.4012E-02
  2.4012E-02
  2.4012E-02
  2.4012E-02
  2.4012E-02
  8.9655E-02
  8.9655E-02
  8.9655E-02
  8.9655E-02
  8.9655E-02
  8.9655E-02
  8.9655E-02
  8.9655E-02
  8.9655E-02
  3.3468E-01
  3.3468E-01
  3.3468E-01
  3.3468E-01
  3.3468E-01
  3.3468E-01
  3.3468E-01
  3.3468E-01
  3.3468E-01
  5.2793E-01
  5.2793E-01
  5.2793E-01
  5.2793E-01
  5.2793E-01
  5.2793E-01
  5.2793E-01
  5.2793E-01
  5.2793E-01
   1.7400E-02
  4.0527E-15
  5.4599E-15
  6.8671E-15
  2.0264E-15
  3.7306E-15
  5.4348E-15
  0.0000E+00
  2.0012E-15
  4.0024E-15
  1.2112E-14
  1.6374E-14
  2.0637E-14
  6.0558E-15
  1.1207E-14
  1.6358E-14
  0.0000E+00
  6.0392E-15
  1.2078E-14
  4.8419E-14
  6.5532E-14
  8.2644E-14
  2.4210E-14
  4.4864E-14
  6.5518E-14
  0.0000E+00
  2.4195E-14
  4.8391E-14
  2.7276E-13
  3.2541E-13
  3.7806E-13
  1.3638E-13
  2.3089E-13
  3.2540E-13
  0.0000E+00
  1.3637E-13
  2.7274E-13
  1.2127E-12
  1.3807E-12
  1.5488E-12
  6.0635E-13
  9.9355E-13
  1.3807E-12
  0.0000E+00
  6.0635E-13
  1.2127E-12
  4.5483E-12
  5.1617E-12
  5.7750E-12
  2.2742E-12
  3.7179E-12
  5.1617E-12
  0.0000E+00
  2.2742E-12
  4.5484E-12
  1.6717E-11
  1.9029E-11
  2.1340E-11
  8.3586E-12
  1.3694E-11
  1.9029E-11
  0.0000E+00
  8.3587E-12
  1.6717E-11
  4.2410E-08
  4.2407E-08
  4.2405E-08
  4.2407E-08
  4.2407E-08
  4.2407E-08
  4.2404E-08
  4.2407E-08
  4.2410E-08
  1.6958E-07
  1.6956E-07
  1.6955E-07
  1.6960E-07
  1.6958E-07
  1.6956E-07
  1.6962E-07
  1.6960E-07
  1.6958E-07
  6.3595E-07
  6.3589E-07
  6.3583E-07
  6.3600E-07
  6.3595E-07
  6.3589E-07
  6.3606E-07
  6.3600E-07
  6.3595E-07
  2.4518E-06
  2.4516E-06
  2.4514E-06
  2.4520E-06
  2.4518E-06
  2.4516E-06
  2.4522E-06
  2.4520E-06
  2.4518E-06
  9.0463E-06
  9.0463E-06
  9.0462E-06
  9.0463E-06
  9.0463E-06
  9.0463E-06
  9.0463E-06
  9.0463E-06
  9.0463E-06
  3.3509E-05
  3.3509E-05
  3.3509E-05
  3.3509E-05
  3.3509E-05
  3.3509E-05
  3.3509E-05
  3.3509E-05
  3.3509E-05
  1.2499E-04
  1.2499E-04
  1.2499E-04
  1.2499E-04
  1.2499E-04
  1.2499E-04
  1.2499E-04
  1.2499E-04
  1.2499E-04
  4.6670E-04
  4.6670E-04
  4.6670E-04
  4.6670E-04
  4.6670E-04
  4.6670E-04
  4.6670E-04
  4.6670E-04
  4.6670E-04
  1.7425E-03
  1.7425E-03
  1.7425E-03
  1.7425E-03
  1.7425E-03
  1.7425E-03
  1.7425E-03
  1.7425E-03
  1.7425E-03
  6.5060E-03
  6.5060E-03
  6.5060E-03
  6.5060E-03
  6.5060E-03
  6.5060E-03
  6.5060E-03
  6.5060E-03
  6.5060E-03
  2.4290E-02
  2.4290E-02
  2.4290E-02
  2.4290E-02
  2.4290E-02
  2.4290E-02
  2.4290E-02
  2.4290E-02
  2.4290E-02
  9.0693E-02
  9.0693E-02
  9.0693E-02
  9.0693E-02
  9.0693E-02
  9.0693E-02
  9.0693E-02
  9.0693E-02
  9.0693E-02
  3.3856E-01
  3.3856E-01
  3.3856E-01
  3.3856E-01
  3.3856E-01
  3.3856E-01
  3.3856E-01
  3.3856E-01
  3.3856E-01
  5.3405E-01
  5.3405E-01
  5.3405E-01
  5.3405E-01
  5.3405E-01
  5.3405E-01
  5.3405E-01
  5.3405E-01
  5.3405E-01
   1.7500E-02
  4.1464E-15
  5.5865E-15
  7.0265E-15
  2.0732E-15
  3.8171E-15
  5.5610E-15
  0.0000E+00
  2.0478E-15
  4.0955E-15
  1.2392E-14
  1.6754E-14
  2.1115E-14
  6.1960E-15
  1.1466E-14
  1.6737E-14
  0.0000E+00
  6.1793E-15
  1.2359E-14
  4.9541E-14
  6.7050E-14
  8.4559E-14
  2.4771E-14
  4.5903E-14
  6.7036E-14
  0.0000E+00
  2.4756E-14
  4.9513E-14
  2.7654E-13
  3.3058E-13
  3.8463E-13
  1.3827E-13
  2.3442E-13
  3.3057E-13
  0.0000E+00
  1.3826E-13
  2.7651E-13
  1.2261E-12
  1.3991E-12
  1.5722E-12
  6.1303E-13
  1.0061E-12
  1.3991E-12
  0.0000E+00
  6.1303E-13
  1.2261E-12
  4.5983E-12
  5.2305E-12
  5.8627E-12
  2.2991E-12
  3.7648E-12
  5.2305E-12
  0.0000E+00
  2.2991E-12
  4.5983E-12
  1.7051E-11
  1.9423E-11
  2.1795E-11
  8.5254E-12
  1.3974E-11
  1.9423E-11
  0.0000E+00
  8.5255E-12
  1.7051E-11
  4.2898E-08
  4.2896E-08
  4.2894E-08
  4.2896E-08
  4.2896E-08
  4.2896E-08
  4.2893E-08
  4.2896E-08
  4.2898E-08
  1.7154E-07
  1.7152E-07
  1.7150E-07
  1.7155E-07
  1.7154E-07
  1.7152E-07
  1.7157E-07
  1.7155E-07
  1.7154E-07
  6.4327E-07
  6.4321E-07
  6.4315E-07
  6.4334E-07
  6.4327E-07
  6.4321E-07
  6.4340E-07
  6.4334E-07
  6.4327E-07
  2.4798E-06
  2.4796E-06
  2.4794E-06
  2.4800E-06
  2.4798E-06
  2.4796E-06
  2.4802E-06
  2.4800E-06
  2.4798E-06
  9.1499E-06
  9.1499E-06
  9.1499E-06
  9.1499E-06
  9.1499E-06
  9.1499E-06
  9.1499E-06
  9.1499E-06
  9.1499E-06
  3.3894E-05
  3.3894E-05
  3.3894E-05
  3.3894E-05
  3.3894E-05
  3.3894E-05
  3.3894E-05
  3.3894E-05
  3.3894E-05
  1.2643E-04
  1.2643E-04
  1.2643E-04
  1.2643E-04
  1.2643E-04
  1.2643E-04
  1.2643E-04
  1.2643E-04
  1.2643E-04
  4.7207E-04
  4.7207E-04
  4.7207E-04
  4.7207E-04
  4.7207E-04
  4.7207E-04
  4.7207E-04
  4.7207E-04
  4.7207E-04
  1.7626E-03
  1.7626E-03
  1.7626E-03
  1.7626E-03
  1.7626E-03
  1.7626E-03
  1.7626E-03
  1.7626E-03
  1.7626E-03
  6.5808E-03
  6.5808E-03
  6.5808E-03
  6.5808E-03
  6.5808E-03
  6.5808E-03
  6.5808E-03
  6.5808E-03
  6.5808E-03
  2.4570E-02
  2.4570E-02
  2.4570E-02
  2.4570E-02
  2.4570E-02
  2.4570E-02
  2.4570E-02
  2.4570E-02
  2.4570E-02
  9.1738E-02
  9.1738E-02
  9.1738E-02
  9.1738E-02
  9.1738E-02
  9.1738E-02
  9.1738E-02
  9.1738E-02
  9.1738E-02
  3.4246E-01
  3.4246E-01
  3.4246E-01
  3.4246E-01
  3.4246E-01
  3.4246E-01
  3.4246E-01
  3.4246E-01
  3.4246E-01
  5.4020E-01
  5.4020E-01
  5.4020E-01
  5.4020E-01
  5.4020E-01
  5.4020E-01
  5.4020E-01
  5.4020E-01
  5.4020E-01
   1.7600E-02
  4.2417E-15
  5.7152E-15
  7.1886E-15
  2.1209E-15
  3.9052E-15
  5.6894E-15
  0.0000E+00
  2.0951E-15
  4.1902E-15
  1.2678E-14
  1.7140E-14
  2.1602E-14
  6.3388E-15
  1.1731E-14
  1.7123E-14
  0.0000E+00
  6.3218E-15
  1.2644E-14
  5.0683E-14
  6.8595E-14
  8.6508E-14
  2.5341E-14
  4.6961E-14
  6.8581E-14
  0.0000E+00
  2.5327E-14
  5.0654E-14
  2.8039E-13
  3.3586E-13
  3.9133E-13
  1.4020E-13
  2.3802E-13
  3.3585E-13
  0.0000E+00
  1.4018E-13
  2.8037E-13
  1.2397E-12
  1.4180E-12
  1.5962E-12
  6.1986E-13
  1.0189E-12
  1.4180E-12
  0.0000E+00
  6.1986E-13
  1.2397E-12
  4.6858E-12
  5.3347E-12
  5.9836E-12
  2.3429E-12
  3.8388E-12
  5.3347E-12
  0.0000E+00
  2.3429E-12
  4.6858E-12
  1.7451E-11
  1.9878E-11
  2.2305E-11
  8.7257E-12
  1.4302E-11
  1.9878E-11
  0.0000E+00
  8.7257E-12
  1.7451E-11
  4.3390E-08
  4.3388E-08
  4.3386E-08
  4.3387E-08
  4.3388E-08
  4.3388E-08
  4.3385E-08
  4.3387E-08
  4.3390E-08
  1.7350E-07
  1.7348E-07
  1.7347E-07
  1.7352E-07
  1.7350E-07
  1.7348E-07
  1.7354E-07
  1.7352E-07
  1.7350E-07
  6.5065E-07
  6.5058E-07
  6.5052E-07
  6.5071E-07
  6.5065E-07
  6.5058E-07
  6.5077E-07
  6.5071E-07
  6.5065E-07
  2.5080E-06
  2.5078E-06
  2.5076E-06
  2.5082E-06
  2.5080E-06
  2.5078E-06
  2.5084E-06
  2.5082E-06
  2.5080E-06
  9.2541E-06
  9.2541E-06
  9.2540E-06
  9.2541E-06
  9.2541E-06
  9.2541E-06
  9.2541E-06
  9.2541E-06
  9.2541E-06
  3.4281E-05
  3.4281E-05
  3.4281E-05
  3.4281E-05
  3.4281E-05
  3.4281E-05
  3.4281E-05
  3.4281E-05
  3.4281E-05
  1.2787E-04
  1.2787E-04
  1.2787E-04
  1.2787E-04
  1.2787E-04
  1.2787E-04
  1.2787E-04
  1.2787E-04
  1.2787E-04
  4.7747E-04
  4.7747E-04
  4.7747E-04
  4.7747E-04
  4.7747E-04
  4.7747E-04
  4.7747E-04
  4.7747E-04
  4.7747E-04
  1.7828E-03
  1.7828E-03
  1.7828E-03
  1.7828E-03
  1.7828E-03
  1.7828E-03
  1.7828E-03
  1.7828E-03
  1.7828E-03
  6.6562E-03
  6.6562E-03
  6.6562E-03
  6.6562E-03
  6.6562E-03
  6.6562E-03
  6.6562E-03
  6.6562E-03
  6.6562E-03
  2.4851E-02
  2.4851E-02
  2.4851E-02
  2.4851E-02
  2.4851E-02
  2.4851E-02
  2.4851E-02
  2.4851E-02
  2.4851E-02
  9.2789E-02
  9.2789E-02
  9.2789E-02
  9.2789E-02
  9.2789E-02
  9.2789E-02
  9.2789E-02
  9.2789E-02
  9.2789E-02
  3.4638E-01
  3.4638E-01
  3.4638E-01
  3.4638E-01
  3.4638E-01
  3.4638E-01
  3.4638E-01
  3.4638E-01
  3.4638E-01
  5.4639E-01
  5.4639E-01
  5.4639E-01
  5.4639E-01
  5.4639E-01
  5.4639E-01
  5.4639E-01
  5.4639E-01
  5.4639E-01
   1.7700E-02
  4.3387E-15
  5.8461E-15
  7.3535E-15
  2.1693E-15
  3.9947E-15
  5.8201E-15
  0.0000E+00
  2.1433E-15
  4.2866E-15
  1.2968E-14
  1.7532E-14
  2.2097E-14
  6.4839E-15
  1.2000E-14
  1.7515E-14
  0.0000E+00
  6.4668E-15
  1.2934E-14
  5.1844E-14
  7.0167E-14
  8.8490E-14
  2.5922E-14
  4.8037E-14
  7.0152E-14
  0.0000E+00
  2.5907E-14
  5.1815E-14
  2.8433E-13
  3.4125E-13
  3.9816E-13
  1.4216E-13
  2.4170E-13
  3.4123E-13
  0.0000E+00
  1.4215E-13
  2.8430E-13
  1.2537E-12
  1.4372E-12
  1.6207E-12
  6.2684E-13
  1.0320E-12
  1.4372E-12
  0.0000E+00
  6.2684E-13
  1.2537E-12
  4.7742E-12
  5.4402E-12
  6.1062E-12
  2.3871E-12
  3.9137E-12
  5.4402E-12
  0.0000E+00
  2.3871E-12
  4.7743E-12
  1.7855E-11
  2.0338E-11
  2.2821E-11
  8.9276E-12
  1.4633E-11
  2.0338E-11
  0.0000E+00
  8.9277E-12
  1.7855E-11
  4.3885E-08
  4.3883E-08
  4.3880E-08
  4.3882E-08
  4.3882E-08
  4.3883E-08
  4.3879E-08
  4.3882E-08
  4.3885E-08
  1.7548E-07
  1.7546E-07
  1.7544E-07
  1.7550E-07
  1.7548E-07
  1.7546E-07
  1.7552E-07
  1.7550E-07
  1.7548E-07
  6.5806E-07
  6.5800E-07
  6.5793E-07
  6.5812E-07
  6.5806E-07
  6.5800E-07
  6.5819E-07
  6.5812E-07
  6.5806E-07
  2.5364E-06
  2.5362E-06
  2.5360E-06
  2.5366E-06
  2.5364E-06
  2.5362E-06
  2.5368E-06
  2.5366E-06
  2.5364E-06
  9.3588E-06
  9.3588E-06
  9.3588E-06
  9.3588E-06
  9.3588E-06
  9.3588E-06
  9.3589E-06
  9.3588E-06
  9.3588E-06
  3.4670E-05
  3.4671E-05
  3.4671E-05
  3.4670E-05
  3.4670E-05
  3.4671E-05
  3.4670E-05
  3.4670E-05
  3.4670E-05
  1.2933E-04
  1.2933E-04
  1.2933E-04
  1.2933E-04
  1.2933E-04
  1.2933E-04
  1.2932E-04
  1.2933E-04
  1.2933E-04
  4.8290E-04
  4.8290E-04
  4.8290E-04
  4.8290E-04
  4.8290E-04
  4.8290E-04
  4.8289E-04
  4.8290E-04
  4.8290E-04
  1.8030E-03
  1.8030E-03
  1.8030E-03
  1.8030E-03
  1.8030E-03
  1.8030E-03
  1.8030E-03
  1.8030E-03
  1.8030E-03
  6.7319E-03
  6.7319E-03
  6.7319E-03
  6.7319E-03
  6.7319E-03
  6.7319E-03
  6.7319E-03
  6.7319E-03
  6.7319E-03
  2.5134E-02
  2.5134E-02
  2.5134E-02
  2.5134E-02
  2.5134E-02
  2.5134E-02
  2.5134E-02
  2.5134E-02
  2.5134E-02
  9.3845E-02
  9.3845E-02
  9.3845E-02
  9.3845E-02
  9.3845E-02
  9.3845E-02
  9.3845E-02
  9.3845E-02
  9.3845E-02
  3.5033E-01
  3.5033E-01
  3.5033E-01
  3.5033E-01
  3.5033E-01
  3.5033E-01
  3.5033E-01
  3.5033E-01
  3.5033E-01
  5.5261E-01
  5.5261E-01
  5.5261E-01
  5.5261E-01
  5.5261E-01
  5.5261E-01
  5.5261E-01
  5.5261E-01
  5.5261E-01
   1.7800E-02
  4.4373E-15
  5.9793E-15
  7.5213E-15
  2.2186E-15
  4.0858E-15
  5.9529E-15
  0.0000E+00
  2.1923E-15
  4.3846E-15
  1.3263E-14
  1.7932E-14
  2.2601E-14
  6.6315E-15
  1.2273E-14
  1.7915E-14
  0.0000E+00
  6.6143E-15
  1.3229E-14
  5.3024E-14
  7.1765E-14
  9.0505E-14
  2.6512E-14
  4.9131E-14
  7.1750E-14
  0.0000E+00
  2.6498E-14
  5.2995E-14
  2.8834E-13
  3.4674E-13
  4.0513E-13
  1.4417E-13
  2.4545E-13
  3.4673E-13
  0.0000E+00
  1.4416E-13
  2.8832E-13
  1.2679E-12
  1.4568E-12
  1.6457E-12
  6.3397E-13
  1.0454E-12
  1.4568E-12
  0.0000E+00
  6.3397E-13
  1.2679E-12
  4.8637E-12
  5.5471E-12
  6.2305E-12
  2.4318E-12
  3.9895E-12
  5.5471E-12
  0.0000E+00
  2.4319E-12
  4.8637E-12
  1.8262E-11
  2.0803E-11
  2.3343E-11
  9.1312E-12
  1.4967E-11
  2.0803E-11
  0.0000E+00
  9.1313E-12
  1.8263E-11
  4.4382E-08
  4.4380E-08
  4.4378E-08
  4.4379E-08
  4.4380E-08
  4.4380E-08
  4.4376E-08
  4.4379E-08
  4.4382E-08
  1.7747E-07
  1.7745E-07
  1.7743E-07
  1.7749E-07
  1.7747E-07
  1.7745E-07
  1.7751E-07
  1.7749E-07
  1.7747E-07
  6.6551E-07
  6.6545E-07
  6.6538E-07
  6.6558E-07
  6.6551E-07
  6.6545E-07
  6.6564E-07
  6.6558E-07
  6.6551E-07
  2.5649E-06
  2.5647E-06
  2.5645E-06
  2.5651E-06
  2.5649E-06
  2.5647E-06
  2.5653E-06
  2.5651E-06
  2.5649E-06
  9.4642E-06
  9.4642E-06
  9.4642E-06
  9.4642E-06
  9.4642E-06
  9.4642E-06
  9.4642E-06
  9.4642E-06
  9.4642E-06
  3.5062E-05
  3.5062E-05
  3.5062E-05
  3.5062E-05
  3.5062E-05
  3.5062E-05
  3.5062E-05
  3.5062E-05
  3.5062E-05
  1.3079E-04
  1.3079E-04
  1.3079E-04
  1.3079E-04
  1.3079E-04
  1.3079E-04
  1.3079E-04
  1.3079E-04
  1.3079E-04
  4.8835E-04
  4.8835E-04
  4.8835E-04
  4.8835E-04
  4.8835E-04
  4.8835E-04
  4.8835E-04
  4.8835E-04
  4.8835E-04
  1.8234E-03
  1.8234E-03
  1.8234E-03
  1.8234E-03
  1.8234E-03
  1.8234E-03
  1.8234E-03
  1.8234E-03
  1.8234E-03
  6.8080E-03
  6.8080E-03
  6.8080E-03
  6.8080E-03
  6.8080E-03
  6.8080E-03
  6.8080E-03
  6.8080E-03
  6.8080E-03
  2.5419E-02
  2.5419E-02
  2.5419E-02
  2.5419E-02
  2.5419E-02
  2.5419E-02
  2.5419E-02
  2.5419E-02
  2.5419E-02
  9.4908E-02
  9.4908E-02
  9.4908E-02
  9.4908E-02
  9.4908E-02
  9.4908E-02
  9.4908E-02
  9.4908E-02
  9.4908E-02
  3.5429E-01
  3.5429E-01
  3.5429E-01
  3.5429E-01
  3.5429E-01
  3.5429E-01
  3.5429E-01
  3.5429E-01
  3.5429E-01
  5.5887E-01
  5.5887E-01
  5.5887E-01
  5.5887E-01
  5.5887E-01
  5.5887E-01
  5.5887E-01
  5.5887E-01
  5.5887E-01
   1.7900E-02
  4.5376E-15
  6.1147E-15
  7.6918E-15
  2.2688E-15
  4.1784E-15
  6.0881E-15
  0.0000E+00
  2.2422E-15
  4.4843E-15
  1.3563E-14
  1.8338E-14
  2.3113E-14
  6.7817E-15
  1.2551E-14
  1.8321E-14
  0.0000E+00
  6.7642E-15
  1.3528E-14
  5.4225E-14
  7.3390E-14
  9.2555E-14
  2.7113E-14
  5.0244E-14
  7.3375E-14
  0.0000E+00
  2.7098E-14
  5.4196E-14
  2.9244E-13
  3.5234E-13
  4.1224E-13
  1.4622E-13
  2.4927E-13
  3.5233E-13
  0.0000E+00
  1.4621E-13
  2.9241E-13
  1.2825E-12
  1.4769E-12
  1.6712E-12
  6.4126E-13
  1.0591E-12
  1.4769E-12
  0.0000E+00
  6.4126E-13
  1.2825E-12
  4.9724E-12
  5.6678E-12
  6.3632E-12
  2.4862E-12
  4.0770E-12
  5.6678E-12
  0.0000E+00
  2.4862E-12
  4.9725E-12
  1.8705E-11
  2.1292E-11
  2.3879E-11
  9.3525E-12
  1.5322E-11
  2.1292E-11
  0.0000E+00
  9.3525E-12
  1.8705E-11
  4.4882E-08
  4.4880E-08
  4.4878E-08
  4.4879E-08
  4.4880E-08
  4.4880E-08
  4.4876E-08
  4.4879E-08
  4.4882E-08
  1.7947E-07
  1.7945E-07
  1.7943E-07
  1.7949E-07
  1.7947E-07
  1.7945E-07
  1.7951E-07
  1.7949E-07
  1.7947E-07
  6.7301E-07
  6.7295E-07
  6.7288E-07
  6.7308E-07
  6.7301E-07
  6.7295E-07
  6.7314E-07
  6.7308E-07
  6.7301E-07
  2.5936E-06
  2.5934E-06
  2.5932E-06
  2.5938E-06
  2.5936E-06
  2.5934E-06
  2.5940E-06
  2.5938E-06
  2.5936E-06
  9.5701E-06
  9.5701E-06
  9.5701E-06
  9.5701E-06
  9.5701E-06
  9.5701E-06
  9.5701E-06
  9.5701E-06
  9.5701E-06
  3.5455E-05
  3.5456E-05
  3.5456E-05
  3.5455E-05
  3.5455E-05
  3.5456E-05
  3.5455E-05
  3.5455E-05
  3.5455E-05
  1.3226E-04
  1.3226E-04
  1.3226E-04
  1.3226E-04
  1.3226E-04
  1.3226E-04
  1.3226E-04
  1.3226E-04
  1.3226E-04
  4.9384E-04
  4.9384E-04
  4.9384E-04
  4.9384E-04
  4.9384E-04
  4.9384E-04
  4.9384E-04
  4.9384E-04
  4.9384E-04
  1.8439E-03
  1.8439E-03
  1.8439E-03
  1.8439E-03
  1.8439E-03
  1.8439E-03
  1.8439E-03
  1.8439E-03
  1.8439E-03
  6.8846E-03
  6.8846E-03
  6.8846E-03
  6.8846E-03
  6.8846E-03
  6.8846E-03
  6.8846E-03
  6.8846E-03
  6.8846E-03
  2.5705E-02
  2.5705E-02
  2.5705E-02
  2.5705E-02
  2.5705E-02
  2.5705E-02
  2.5705E-02
  2.5705E-02
  2.5705E-02
  9.5977E-02
  9.5977E-02
  9.5977E-02
  9.5977E-02
  9.5977E-02
  9.5977E-02
  9.5977E-02
  9.5977E-02
  9.5977E-02
  3.5828E-01
  3.5828E-01
  3.5828E-01
  3.5828E-01
  3.5828E-01
  3.5828E-01
  3.5828E-01
  3.5828E-01
  3.5828E-01
  5.6516E-01
  5.6516E-01
  5.6516E-01
  5.6516E-01
  5.6516E-01
  5.6516E-01
  5.6516E-01
  5.6516E-01
  5.6516E-01
   1.8000E-02
  4.6395E-15
  6.2524E-15
  7.8653E-15
  2.3198E-15
  4.2726E-15
  6.2255E-15
  0.0000E+00
  2.2928E-15
  4.5857E-15
  1.3869E-14
  1.8751E-14
  2.3634E-14
  6.9344E-15
  1.2834E-14
  1.8734E-14
  0.0000E+00
  6.9167E-15
  1.3833E-14
  5.5446E-14
  7.5043E-14
  9.4639E-14
  2.7723E-14
  5.1376E-14
  7.5028E-14
  0.0000E+00
  2.7708E-14
  5.5417E-14
  2.9662E-13
  3.5805E-13
  4.1949E-13
  1.4831E-13
  2.5317E-13
  3.5804E-13
  0.0000E+00
  1.4829E-13
  2.9659E-13
  1.2974E-12
  1.4973E-12
  1.6972E-12
  6.4870E-13
  1.0730E-12
  1.4973E-12
  0.0000E+00
  6.4871E-13
  1.2974E-12
  5.0822E-12
  5.7990E-12
  6.5158E-12
  2.5411E-12
  4.1700E-12
  5.7990E-12
  0.0000E+00
  2.5411E-12
  5.0822E-12
  1.9151E-11
  2.1802E-11
  2.4454E-11
  9.5754E-12
  1.5689E-11
  2.1802E-11
  0.0000E+00
  9.5754E-12
  1.9151E-11
  4.5385E-08
  4.5383E-08
  4.5381E-08
  4.5382E-08
  4.5383E-08
  4.5383E-08
  4.5379E-08
  4.5382E-08
  4.5385E-08
  1.8148E-07
  1.8146E-07
  1.8144E-07
  1.8150E-07
  1.8148E-07
  1.8146E-07
  1.8152E-07
  1.8150E-07
  1.8148E-07
  6.8055E-07
  6.8048E-07
  6.8042E-07
  6.8062E-07
  6.8055E-07
  6.8048E-07
  6.8069E-07
  6.8062E-07
  6.8055E-07
  2.6224E-06
  2.6222E-06
  2.6220E-06
  2.6227E-06
  2.6224E-06
  2.6222E-06
  2.6229E-06
  2.6227E-06
  2.6224E-06
  9.6766E-06
  9.6766E-06
  9.6766E-06
  9.6767E-06
  9.6766E-06
  9.6766E-06
  9.6767E-06
  9.6767E-06
  9.6766E-06
  3.5851E-05
  3.5851E-05
  3.5851E-05
  3.5851E-05
  3.5851E-05
  3.5851E-05
  3.5851E-05
  3.5851E-05
  3.5851E-05
  1.3373E-04
  1.3373E-04
  1.3373E-04
  1.3373E-04
  1.3373E-04
  1.3373E-04
  1.3373E-04
  1.3373E-04
  1.3373E-04
  4.9936E-04
  4.9936E-04
  4.9936E-04
  4.9936E-04
  4.9936E-04
  4.9936E-04
  4.9936E-04
  4.9936E-04
  4.9936E-04
  1.8645E-03
  1.8645E-03
  1.8645E-03
  1.8645E-03
  1.8645E-03
  1.8645E-03
  1.8645E-03
  1.8645E-03
  1.8645E-03
  6.9616E-03
  6.9616E-03
  6.9616E-03
  6.9616E-03
  6.9616E-03
  6.9616E-03
  6.9616E-03
  6.9616E-03
  6.9616E-03
  2.5992E-02
  2.5992E-02
  2.5992E-02
  2.5992E-02
  2.5992E-02
  2.5992E-02
  2.5992E-02
  2.5992E-02
  2.5992E-02
  9.7051E-02
  9.7051E-02
  9.7051E-02
  9.7051E-02
  9.7051E-02
  9.7051E-02
  9.7051E-02
  9.7051E-02
  9.7051E-02
  3.6230E-01
  3.6230E-01
  3.6230E-01
  3.6230E-01
  3.6230E-01
  3.6230E-01
  3.6230E-01
  3.6230E-01
  3.6230E-01
  5.7149E-01
  5.7149E-01
  5.7149E-01
  5.7149E-01
  5.7149E-01
  5.7149E-01
  5.7149E-01
  5.7149E-01
  5.7149E-01
   1.8100E-02
  4.7432E-15
  6.3925E-15
  8.0417E-15
  2.3716E-15
  4.3684E-15
  6.3652E-15
  0.0000E+00
  2.3444E-15
  4.6888E-15
  1.4179E-14
  1.9171E-14
  2.4163E-14
  7.0896E-15
  1.3122E-14
  1.9153E-14
  0.0000E+00
  7.0718E-15
  1.4144E-14
  5.6688E-14
  7.6723E-14
  9.6759E-14
  2.8344E-14
  5.2526E-14
  7.6708E-14
  0.0000E+00
  2.8329E-14
  5.6658E-14
  3.0088E-13
  3.6387E-13
  4.2687E-13
  1.5044E-13
  2.5715E-13
  3.6386E-13
  0.0000E+00
  1.5042E-13
  3.0085E-13
  1.3858E-12
  1.5864E-12
  1.7870E-12
  6.9290E-13
  1.1396E-12
  1.5864E-12
  0.0000E+00
  6.9290E-13
  1.3858E-12
  5.3019E-12
  6.0231E-12
  6.7443E-12
  2.6509E-12
  4.3370E-12
  6.0231E-12
  0.0000E+00
  2.6510E-12
  5.3019E-12
  1.9622E-11
  2.2326E-11
  2.5029E-11
  9.8111E-12
  1.6068E-11
  2.2326E-11
  0.0000E+00
  9.8112E-12
  1.9622E-11
  4.5891E-08
  4.5889E-08
  4.5886E-08
  4.5888E-08
  4.5888E-08
  4.5889E-08
  4.5885E-08
  4.5888E-08
  4.5891E-08
  1.8350E-07
  1.8348E-07
  1.8346E-07
  1.8352E-07
  1.8350E-07
  1.8348E-07
  1.8354E-07
  1.8352E-07
  1.8350E-07
  6.8813E-07
  6.8806E-07
  6.8799E-07
  6.8820E-07
  6.8813E-07
  6.8806E-07
  6.8827E-07
  6.8820E-07
  6.8813E-07
  2.6514E-06
  2.6512E-06
  2.6510E-06
  2.6517E-06
  2.6514E-06
  2.6512E-06
  2.6519E-06
  2.6517E-06
  2.6514E-06
  9.7837E-06
  9.7837E-06
  9.7837E-06
  9.7838E-06
  9.7837E-06
  9.7837E-06
  9.7838E-06
  9.7838E-06
  9.7837E-06
  3.6249E-05
  3.6249E-05
  3.6249E-05
  3.6249E-05
  3.6249E-05
  3.6249E-05
  3.6249E-05
  3.6249E-05
  3.6249E-05
  1.3522E-04
  1.3522E-04
  1.3522E-04
  1.3522E-04
  1.3522E-04
  1.3522E-04
  1.3522E-04
  1.3522E-04
  1.3522E-04
  5.0491E-04
  5.0491E-04
  5.0491E-04
  5.0491E-04
  5.0491E-04
  5.0491E-04
  5.0491E-04
  5.0491E-04
  5.0491E-04
  1.8853E-03
  1.8853E-03
  1.8853E-03
  1.8853E-03
  1.8853E-03
  1.8853E-03
  1.8853E-03
  1.8853E-03
  1.8853E-03
  7.0391E-03
  7.0391E-03
  7.0391E-03
  7.0391E-03
  7.0391E-03
  7.0391E-03
  7.0391E-03
  7.0391E-03
  7.0391E-03
  2.6281E-02
  2.6281E-02
  2.6281E-02
  2.6281E-02
  2.6281E-02
  2.6281E-02
  2.6281E-02
  2.6281E-02
  2.6281E-02
  9.8132E-02
  9.8132E-02
  9.8132E-02
  9.8132E-02
  9.8132E-02
  9.8132E-02
  9.8132E-02
  9.8132E-02
  9.8132E-02
  3.6633E-01
  3.6633E-01
  3.6633E-01
  3.6633E-01
  3.6633E-01
  3.6633E-01
  3.6633E-01
  3.6633E-01
  3.6633E-01
  5.7786E-01
  5.7786E-01
  5.7786E-01
  5.7786E-01
  5.7786E-01
  5.7786E-01
  5.7786E-01
  5.7786E-01
  5.7786E-01
   1.8200E-02
  4.8486E-15
  6.5348E-15
  8.2210E-15
  2.4243E-15
  4.4658E-15
  6.5073E-15
  0.0000E+00
  2.3968E-15
  4.7936E-15
  1.4495E-14
  1.9598E-14
  2.4702E-14
  7.2474E-15
  1.3414E-14
  1.9580E-14
  0.0000E+00
  7.2294E-15
  1.4459E-14
  5.7950E-14
  7.8432E-14
  9.8914E-14
  2.8975E-14
  5.3696E-14
  7.8417E-14
  0.0000E+00
  2.8960E-14
  5.7920E-14
  3.4165E-13
  4.0368E-13
  4.6572E-13
  1.7082E-13
  2.8725E-13
  4.0367E-13
  0.0000E+00
  1.7081E-13
  3.4162E-13
  1.4644E-12
  1.6636E-12
  1.8627E-12
  7.3219E-13
  1.1979E-12
  1.6636E-12
  0.0000E+00
  7.3220E-13
  1.4644E-12
  5.4217E-12
  6.1571E-12
  6.8925E-12
  2.7109E-12
  4.4340E-12
  6.1571E-12
  0.0000E+00
  2.7109E-12
  5.4218E-12
  2.0043E-11
  2.2809E-11
  2.5575E-11
  1.0021E-11
  1.6415E-11
  2.2809E-11
  0.0000E+00
  1.0022E-11
  2.0043E-11
  4.6400E-08
  4.6397E-08
  4.6395E-08
  4.6396E-08
  4.6397E-08
  4.6397E-08
  4.6393E-08
  4.6396E-08
  4.6400E-08
  1.8553E-07
  1.8551E-07
  1.8549E-07
  1.8555E-07
  1.8553E-07
  1.8551E-07
  1.8557E-07
  1.8555E-07
  1.8553E-07
  6.9576E-07
  6.9568E-07
  6.9561E-07
  6.9583E-07
  6.9576E-07
  6.9568E-07
  6.9590E-07
  6.9583E-07
  6.9576E-07
  2.6806E-06
  2.6803E-06
  2.6801E-06
  2.6808E-06
  2.6806E-06
  2.6803E-06
  2.6810E-06
  2.6808E-06
  2.6806E-06
  9.8914E-06
  9.8914E-06
  9.8914E-06
  9.8914E-06
  9.8914E-06
  9.8914E-06
  9.8914E-06
  9.8914E-06
  9.8914E-06
  3.6649E-05
  3.6649E-05
  3.6649E-05
  3.6649E-05
  3.6649E-05
  3.6649E-05
  3.6649E-05
  3.6649E-05
  3.6649E-05
  1.3671E-04
  1.3671E-04
  1.3671E-04
  1.3671E-04
  1.3671E-04
  1.3671E-04
  1.3671E-04
  1.3671E-04
  1.3671E-04
  5.1049E-04
  5.1049E-04
  5.1049E-04
  5.1049E-04
  5.1049E-04
  5.1049E-04
  5.1049E-04
  5.1049E-04
  5.1049E-04
  1.9061E-03
  1.9061E-03
  1.9061E-03
  1.9061E-03
  1.9061E-03
  1.9061E-03
  1.9061E-03
  1.9061E-03
  1.9061E-03
  7.1169E-03
  7.1169E-03
  7.1169E-03
  7.1169E-03
  7.1169E-03
  7.1169E-03
  7.1169E-03
  7.1169E-03
  7.1169E-03
  2.6572E-02
  2.6572E-02
  2.6572E-02
  2.6572E-02
  2.6572E-02
  2.6572E-02
  2.6572E-02
  2.6572E-02
  2.6572E-02
  9.9218E-02
  9.9218E-02
  9.9218E-02
  9.9218E-02
  9.9218E-02
  9.9218E-02
  9.9218E-02
  9.9218E-02
  9.9218E-02
  3.7039E-01
  3.7039E-01
  3.7039E-01
  3.7039E-01
  3.7039E-01
  3.7039E-01
  3.7039E-01
  3.7039E-01
  3.7039E-01
  5.8426E-01
  5.8426E-01
  5.8426E-01
  5.8426E-01
  5.8426E-01
  5.8426E-01
  5.8426E-01
  5.8426E-01
  5.8426E-01
   1.8300E-02
  4.9558E-15
  6.6795E-15
  8.4033E-15
  2.4779E-15
  4.5648E-15
  6.6517E-15
  0.0000E+00
  2.4501E-15
  4.9001E-15
  1.4816E-14
  2.0032E-14
  2.5249E-14
  7.4079E-15
  1.3711E-14
  2.0014E-14
  0.0000E+00
  7.3897E-15
  1.4779E-14
  5.9234E-14
  8.0169E-14
  1.0110E-13
  2.9617E-14
  5.4885E-14
  8.0154E-14
  0.0000E+00
  2.9602E-14
  5.9203E-14
  3.4590E-13
  4.0951E-13
  4.7313E-13
  1.7295E-13
  2.9122E-13
  4.0950E-13
  0.0000E+00
  1.7294E-13
  3.4587E-13
  1.4796E-12
  1.6845E-12
  1.8895E-12
  7.3980E-13
  1.2122E-12
  1.6845E-12
  0.0000E+00
  7.3981E-13
  1.4796E-12
  5.5155E-12
  6.2700E-12
  7.0245E-12
  2.7578E-12
  4.5139E-12
  6.2700E-12
  0.0000E+00
  2.7578E-12
  5.5155E-12
  2.0467E-11
  2.3297E-11
  2.6126E-11
  1.0234E-11
  1.6765E-11
  2.3297E-11
  0.0000E+00
  1.0234E-11
  2.0467E-11
  4.6911E-08
  4.6908E-08
  4.6906E-08
  4.6908E-08
  4.6908E-08
  4.6908E-08
  4.6904E-08
  4.6908E-08
  4.6911E-08
  1.8757E-07
  1.8755E-07
  1.8753E-07
  1.8760E-07
  1.8757E-07
  1.8755E-07
  1.8762E-07
  1.8760E-07
  1.8757E-07
  7.0342E-07
  7.0335E-07
  7.0328E-07
  7.0349E-07
  7.0342E-07
  7.0335E-07
  7.0356E-07
  7.0349E-07
  7.0342E-07
  2.7099E-06
  2.7096E-06
  2.7094E-06
  2.7101E-06
  2.7099E-06
  2.7096E-06
  2.7103E-06
  2.7101E-06
  2.7099E-06
  9.9997E-06
  9.9997E-06
  9.9997E-06
  9.9997E-06
  9.9997E-06
  9.9997E-06
  9.9997E-06
  9.9997E-06
  9.9997E-06
  3.7052E-05
  3.7052E-05
  3.7052E-05
  3.7051E-05
  3.7052E-05
  3.7052E-05
  3.7051E-05
  3.7051E-05
  3.7052E-05
  1.3821E-04
  1.3821E-04
  1.3821E-04
  1.3821E-04
  1.3821E-04
  1.3821E-04
  1.3821E-04
  1.3821E-04
  1.3821E-04
  5.1610E-04
  5.1610E-04
  5.1610E-04
  5.1610E-04
  5.1610E-04
  5.1610E-04
  5.1610E-04
  5.1610E-04
  5.1610E-04
  1.9271E-03
  1.9271E-03
  1.9271E-03
  1.9271E-03
  1.9271E-03
  1.9271E-03
  1.9271E-03
  1.9271E-03
  1.9271E-03
  7.1952E-03
  7.1952E-03
  7.1952E-03
  7.1952E-03
  7.1952E-03
  7.1952E-03
  7.1952E-03
  7.1952E-03
  7.1952E-03
  2.6865E-02
  2.6865E-02
  2.6865E-02
  2.6865E-02
  2.6865E-02
  2.6865E-02
  2.6865E-02
  2.6865E-02
  2.6865E-02
  1.0031E-01
  1.0031E-01
  1.0031E-01
  1.0031E-01
  1.0031E-01
  1.0031E-01
  1.0031E-01
  1.0031E-01
  1.0031E-01
  3.7447E-01
  3.7447E-01
  3.7447E-01
  3.7447E-01
  3.7447E-01
  3.7447E-01
  3.7447E-01
  3.7447E-01
  3.7447E-01
  5.9069E-01
  5.9069E-01
  5.9069E-01
  5.9069E-01
  5.9069E-01
  5.9069E-01
  5.9069E-01
  5.9069E-01
  5.9069E-01
   1.8400E-02
  5.0647E-15
  6.8267E-15
  8.5886E-15
  2.5323E-15
  4.6654E-15
  6.7985E-15
  0.0000E+00
  2.5042E-15
  5.0084E-15
  1.5142E-14
  2.0474E-14
  2.5805E-14
  7.5710E-15
  1.4013E-14
  2.0455E-14
  0.0000E+00
  7.5526E-15
  1.5105E-14
  6.0538E-14
  8.1934E-14
  1.0333E-13
  3.0269E-14
  5.6094E-14
  8.1919E-14
  0.0000E+00
  3.0254E-14
  6.0507E-14
  3.5023E-13
  4.1545E-13
  4.8067E-13
  1.7512E-13
  2.9528E-13
  4.1544E-13
  0.0000E+00
  1.7510E-13
  3.5021E-13
  1.4952E-12
  1.7060E-12
  1.9168E-12
  7.4758E-13
  1.2268E-12
  1.7060E-12
  0.0000E+00
  7.4758E-13
  1.4952E-12
  5.6103E-12
  6.3843E-12
  7.1583E-12
  2.8052E-12
  4.5947E-12
  6.3843E-12
  0.0000E+00
  2.8052E-12
  5.6104E-12
  2.0895E-11
  2.3790E-11
  2.6684E-11
  1.0447E-11
  1.7119E-11
  2.3790E-11
  0.0000E+00
  1.0448E-11
  2.0895E-11
  4.7425E-08
  4.7423E-08
  4.7420E-08
  4.7422E-08
  4.7422E-08
  4.7423E-08
  4.7418E-08
  4.7422E-08
  4.7425E-08
  1.8963E-07
  1.8961E-07
  1.8959E-07
  1.8965E-07
  1.8963E-07
  1.8961E-07
  1.8967E-07
  1.8965E-07
  1.8963E-07
  7.1113E-07
  7.1105E-07
  7.1098E-07
  7.1120E-07
  7.1113E-07
  7.1105E-07
  7.1128E-07
  7.1120E-07
  7.1113E-07
  2.7393E-06
  2.7391E-06
  2.7389E-06
  2.7396E-06
  2.7393E-06
  2.7391E-06
  2.7398E-06
  2.7396E-06
  2.7393E-06
  1.0109E-05
  1.0109E-05
  1.0109E-05
  1.0109E-05
  1.0109E-05
  1.0109E-05
  1.0109E-05
  1.0109E-05
  1.0109E-05
  3.7456E-05
  3.7456E-05
  3.7456E-05
  3.7456E-05
  3.7456E-05
  3.7456E-05
  3.7456E-05
  3.7456E-05
  3.7456E-05
  1.3972E-04
  1.3972E-04
  1.3972E-04
  1.3972E-04
  1.3972E-04
  1.3972E-04
  1.3972E-04
  1.3972E-04
  1.3972E-04
  5.2174E-04
  5.2174E-04
  5.2174E-04
  5.2174E-04
  5.2174E-04
  5.2174E-04
  5.2174E-04
  5.2174E-04
  5.2174E-04
  1.9481E-03
  1.9481E-03
  1.9481E-03
  1.9481E-03
  1.9481E-03
  1.9481E-03
  1.9481E-03
  1.9481E-03
  1.9481E-03
  7.2739E-03
  7.2739E-03
  7.2739E-03
  7.2739E-03
  7.2739E-03
  7.2739E-03
  7.2739E-03
  7.2739E-03
  7.2739E-03
  2.7159E-02
  2.7159E-02
  2.7159E-02
  2.7159E-02
  2.7159E-02
  2.7159E-02
  2.7159E-02
  2.7159E-02
  2.7159E-02
  1.0141E-01
  1.0141E-01
  1.0141E-01
  1.0141E-01
  1.0141E-01
  1.0141E-01
  1.0141E-01
  1.0141E-01
  1.0141E-01
  3.7857E-01
  3.7857E-01
  3.7857E-01
  3.7857E-01
  3.7857E-01
  3.7857E-01
  3.7857E-01
  3.7857E-01
  3.7857E-01
  5.9716E-01
  5.9716E-01
  5.9716E-01
  5.9716E-01
  5.9716E-01
  5.9716E-01
  5.9716E-01
  5.9716E-01
  5.9716E-01
   1.8500E-02
  5.1754E-15
  6.9762E-15
  8.7770E-15
  2.5877E-15
  4.7677E-15
  6.9477E-15
  0.0000E+00
  2.5593E-15
  5.1185E-15
  1.5473E-14
  2.0922E-14
  2.6371E-14
  7.7367E-15
  1.4320E-14
  2.0904E-14
  0.0000E+00
  7.7181E-15
  1.5436E-14
  1.3130E-13
  1.4752E-13
  1.6373E-13
  6.5648E-14
  1.0658E-13
  1.4750E-13
  0.0000E+00
  6.5636E-14
  1.3127E-13
  4.7778E-13
  5.2985E-13
  5.8192E-13
  2.3889E-13
  3.8437E-13
  5.2984E-13
  0.0000E+00
  2.3888E-13
  4.7776E-13
  1.5647E-12
  1.7724E-12
  1.9801E-12
  7.8237E-13
  1.2774E-12
  1.7724E-12
  0.0000E+00
  7.8237E-13
  1.5647E-12
  5.7062E-12
  6.5000E-12
  7.2939E-12
  2.8531E-12
  4.6766E-12
  6.5001E-12
  0.0000E+00
  2.8531E-12
  5.7063E-12
  2.1326E-11
  2.4287E-11
  2.7248E-11
  1.0663E-11
  1.7475E-11
  2.4287E-11
  0.0000E+00
  1.0663E-11
  2.1326E-11
  4.7942E-08
  4.7939E-08
  4.7937E-08
  4.7939E-08
  4.7939E-08
  4.7939E-08
  4.7935E-08
  4.7939E-08
  4.7942E-08
  1.9170E-07
  1.9167E-07
  1.9165E-07
  1.9172E-07
  1.9170E-07
  1.9167E-07
  1.9174E-07
  1.9172E-07
  1.9170E-07
  7.1888E-07
  7.1880E-07
  7.1872E-07
  7.1895E-07
  7.1888E-07
  7.1880E-07
  7.1903E-07
  7.1895E-07
  7.1888E-07
  2.7690E-06
  2.7687E-06
  2.7685E-06
  2.7692E-06
  2.7690E-06
  2.7687E-06
  2.7694E-06
  2.7692E-06
  2.7690E-06
  1.0218E-05
  1.0218E-05
  1.0218E-05
  1.0218E-05
  1.0218E-05
  1.0218E-05
  1.0218E-05
  1.0218E-05
  1.0218E-05
  3.7863E-05
  3.7863E-05
  3.7863E-05
  3.7862E-05
  3.7863E-05
  3.7863E-05
  3.7862E-05
  3.7862E-05
  3.7863E-05
  1.4124E-04
  1.4124E-04
  1.4124E-04
  1.4124E-04
  1.4124E-04
  1.4124E-04
  1.4124E-04
  1.4124E-04
  1.4124E-04
  5.2741E-04
  5.2741E-04
  5.2741E-04
  5.2741E-04
  5.2741E-04
  5.2741E-04
  5.2741E-04
  5.2741E-04
  5.2741E-04
  1.9693E-03
  1.9693E-03
  1.9693E-03
  1.9693E-03
  1.9693E-03
  1.9693E-03
  1.9693E-03
  1.9693E-03
  1.9693E-03
  7.3531E-03
  7.3531E-03
  7.3531E-03
  7.3531E-03
  7.3531E-03
  7.3531E-03
  7.3531E-03
  7.3531E-03
  7.3531E-03
  2.7454E-02
  2.7454E-02
  2.7454E-02
  2.7454E-02
  2.7454E-02
  2.7454E-02
  2.7454E-02
  2.7454E-02
  2.7454E-02
  1.0251E-01
  1.0251E-01
  1.0251E-01
  1.0251E-01
  1.0251E-01
  1.0251E-01
  1.0251E-01
  1.0251E-01
  1.0251E-01
  3.8269E-01
  3.8269E-01
  3.8269E-01
  3.8269E-01
  3.8269E-01
  3.8269E-01
  3.8269E-01
  3.8269E-01
  3.8269E-01
  6.0367E-01
  6.0367E-01
  6.0367E-01
  6.0367E-01
  6.0367E-01
  6.0367E-01
  6.0367E-01
  6.0367E-01
  6.0367E-01
   1.8600E-02
  5.2879E-15
  7.1282E-15
  8.9684E-15
  2.6440E-15
  4.8717E-15
  7.0994E-15
  0.0000E+00
  2.6152E-15
  5.2304E-15
  1.5810E-14
  2.1378E-14
  2.6946E-14
  7.9052E-15
  1.4632E-14
  2.1359E-14
  0.0000E+00
  7.8864E-15
  1.5773E-14
  1.3237E-13
  1.4900E-13
  1.6562E-13
  6.6187E-14
  1.0759E-13
  1.4898E-13
  0.0000E+00
  6.6174E-14
  1.3235E-13
  4.8183E-13
  5.3546E-13
  5.8909E-13
  2.4091E-13
  3.8818E-13
  5.3545E-13
  0.0000E+00
  2.4090E-13
  4.8181E-13
  1.5808E-12
  1.7945E-12
  2.0082E-12
  7.9038E-13
  1.2924E-12
  1.7945E-12
  0.0000E+00
  7.9038E-13
  1.5808E-12
  5.8032E-12
  6.6172E-12
  7.4313E-12
  2.9016E-12
  4.7594E-12
  6.6173E-12
  0.0000E+00
  2.9016E-12
  5.8032E-12
  2.1761E-11
  2.4790E-11
  2.7819E-11
  1.0881E-11
  1.7835E-11
  2.4790E-11
  0.0000E+00
  1.0881E-11
  2.1762E-11
  4.8462E-08
  4.8459E-08
  4.8456E-08
  4.8458E-08
  4.8459E-08
  4.8459E-08
  4.8455E-08
  4.8458E-08
  4.8462E-08
  1.9377E-07
  1.9375E-07
  1.9373E-07
  1.9380E-07
  1.9377E-07
  1.9375E-07
  1.9382E-07
  1.9380E-07
  1.9377E-07
  7.2667E-07
  7.2659E-07
  7.2651E-07
  7.2674E-07
  7.2667E-07
  7.2659E-07
  7.2682E-07
  7.2674E-07
  7.2667E-07
  2.7987E-06
  2.7985E-06
  2.7982E-06
  2.7990E-06
  2.7987E-06
  2.7985E-06
  2.7992E-06
  2.7990E-06
  2.7987E-06
  1.0328E-05
  1.0328E-05
  1.0328E-05
  1.0328E-05
  1.0328E-05
  1.0328E-05
  1.0328E-05
  1.0328E-05
  1.0328E-05
  3.8271E-05
  3.8272E-05
  3.8272E-05
  3.8271E-05
  3.8271E-05
  3.8272E-05
  3.8271E-05
  3.8271E-05
  3.8271E-05
  1.4277E-04
  1.4277E-04
  1.4277E-04
  1.4277E-04
  1.4277E-04
  1.4277E-04
  1.4277E-04
  1.4277E-04
  1.4277E-04
  5.3312E-04
  5.3312E-04
  5.3312E-04
  5.3312E-04
  5.3312E-04
  5.3312E-04
  5.3312E-04
  5.3312E-04
  5.3312E-04
  1.9906E-03
  1.9906E-03
  1.9906E-03
  1.9906E-03
  1.9906E-03
  1.9906E-03
  1.9906E-03
  1.9906E-03
  1.9906E-03
  7.4326E-03
  7.4326E-03
  7.4326E-03
  7.4326E-03
  7.4326E-03
  7.4326E-03
  7.4326E-03
  7.4326E-03
  7.4326E-03
  2.7752E-02
  2.7752E-02
  2.7752E-02
  2.7752E-02
  2.7752E-02
  2.7752E-02
  2.7752E-02
  2.7752E-02
  2.7752E-02
  1.0362E-01
  1.0362E-01
  1.0362E-01
  1.0362E-01
  1.0362E-01
  1.0362E-01
  1.0362E-01
  1.0362E-01
  1.0362E-01
  3.8684E-01
  3.8684E-01
  3.8684E-01
  3.8684E-01
  3.8684E-01
  3.8684E-01
  3.8684E-01
  3.8684E-01
  3.8684E-01
  6.1021E-01
  6.1021E-01
  6.1021E-01
  6.1021E-01
  6.1021E-01
  6.1021E-01
  6.1021E-01
  6.1021E-01
  6.1021E-01
   1.8700E-02
  5.4022E-15
  7.2826E-15
  9.1629E-15
  2.7011E-15
  4.9773E-15
  7.2535E-15
  0.0000E+00
  2.6721E-15
  5.3441E-15
  1.6153E-14
  2.1841E-14
  2.7530E-14
  8.0764E-15
  1.4949E-14
  2.1822E-14
  0.0000E+00
  8.0574E-15
  1.6115E-14
  1.3347E-13
  1.5051E-13
  1.6755E-13
  6.6736E-14
  1.0862E-13
  1.5050E-13
  0.0000E+00
  6.6723E-14
  1.3345E-13
  4.8597E-13
  5.4119E-13
  5.9641E-13
  2.4298E-13
  3.9208E-13
  5.4118E-13
  0.0000E+00
  2.4297E-13
  4.8595E-13
  1.5971E-12
  1.8171E-12
  2.0370E-12
  7.9857E-13
  1.3078E-12
  1.8171E-12
  0.0000E+00
  7.9857E-13
  1.5971E-12
  5.9012E-12
  6.7359E-12
  7.5706E-12
  2.9506E-12
  4.8433E-12
  6.7359E-12
  0.0000E+00
  2.9506E-12
  5.9012E-12
  2.2200E-11
  2.5298E-11
  2.8396E-11
  1.1100E-11
  1.8199E-11
  2.5298E-11
  0.0000E+00
  1.1100E-11
  2.2200E-11
  4.8984E-08
  4.8982E-08
  4.8979E-08
  4.8981E-08
  4.8981E-08
  4.8982E-08
  4.8977E-08
  4.8981E-08
  4.8984E-08
  1.9586E-07
  1.9584E-07
  1.9582E-07
  1.9589E-07
  1.9586E-07
  1.9584E-07
  1.9591E-07
  1.9589E-07
  1.9586E-07
  7.3450E-07
  7.3442E-07
  7.3434E-07
  7.3458E-07
  7.3450E-07
  7.3442E-07
  7.3466E-07
  7.3458E-07
  7.3450E-07
  2.8287E-06
  2.8284E-06
  2.8282E-06
  2.8289E-06
  2.8287E-06
  2.8284E-06
  2.8292E-06
  2.8289E-06
  2.8287E-06
  1.0439E-05
  1.0439E-05
  1.0439E-05
  1.0439E-05
  1.0439E-05
  1.0439E-05
  1.0439E-05
  1.0439E-05
  1.0439E-05
  3.8682E-05
  3.8683E-05
  3.8683E-05
  3.8682E-05
  3.8682E-05
  3.8683E-05
  3.8682E-05
  3.8682E-05
  3.8682E-05
  1.4430E-04
  1.4430E-04
  1.4430E-04
  1.4430E-04
  1.4430E-04
  1.4430E-04
  1.4430E-04
  1.4430E-04
  1.4430E-04
  5.3885E-04
  5.3885E-04
  5.3885E-04
  5.3885E-04
  5.3885E-04
  5.3885E-04
  5.3885E-04
  5.3885E-04
  5.3885E-04
  2.0120E-03
  2.0120E-03
  2.0120E-03
  2.0120E-03
  2.0120E-03
  2.0120E-03
  2.0120E-03
  2.0120E-03
  2.0120E-03
  7.5126E-03
  7.5126E-03
  7.5126E-03
  7.5126E-03
  7.5126E-03
  7.5126E-03
  7.5126E-03
  7.5126E-03
  7.5126E-03
  2.8050E-02
  2.8050E-02
  2.8050E-02
  2.8050E-02
  2.8050E-02
  2.8050E-02
  2.8050E-02
  2.8050E-02
  2.8050E-02
  1.0474E-01
  1.0474E-01
  1.0474E-01
  1.0474E-01
  1.0474E-01
  1.0474E-01
  1.0474E-01
  1.0474E-01
  1.0474E-01
  3.9101E-01
  3.9101E-01
  3.9101E-01
  3.9101E-01
  3.9101E-01
  3.9101E-01
  3.9101E-01
  3.9101E-01
  3.9101E-01
  6.1679E-01
  6.1679E-01
  6.1679E-01
  6.1679E-01
  6.1679E-01
  6.1679E-01
  6.1679E-01
  6.1679E-01
  6.1679E-01
   1.8800E-02
  5.5184E-15
  7.4395E-15
  9.3606E-15
  2.7592E-15
  5.0847E-15
  7.4101E-15
  0.0000E+00
  2.7298E-15
  5.4597E-15
  1.6501E-14
  2.2312E-14
  2.8123E-14
  8.2504E-15
  1.5272E-14
  2.2293E-14
  0.0000E+00
  8.2312E-15
  1.6462E-14
  1.3459E-13
  1.5205E-13
  1.6951E-13
  6.7296E-14
  1.0967E-13
  1.5204E-13
  0.0000E+00
  6.7283E-14
  1.3457E-13
  4.9020E-13
  5.4704E-13
  6.0389E-13
  2.4510E-13
  3.9607E-13
  5.4703E-13
  0.0000E+00
  2.4509E-13
  4.9018E-13
  1.6869E-12
  1.9081E-12
  2.1292E-12
  8.4345E-13
  1.3758E-12
  1.9081E-12
  0.0000E+00
  8.4346E-13
  1.6869E-12
  6.1640E-12
  7.0031E-12
  7.8421E-12
  3.0820E-12
  5.0426E-12
  7.0031E-12
  0.0000E+00
  3.0820E-12
  6.1641E-12
  2.2834E-11
  2.5981E-11
  2.9128E-11
  1.1417E-11
  1.8699E-11
  2.5981E-11
  0.0000E+00
  1.1417E-11
  2.2834E-11
  4.9510E-08
  4.9507E-08
  4.9504E-08
  4.9506E-08
  4.9507E-08
  4.9507E-08
  4.9502E-08
  4.9506E-08
  4.9510E-08
  1.9796E-07
  1.9794E-07
  1.9791E-07
  1.9799E-07
  1.9796E-07
  1.9794E-07
  1.9801E-07
  1.9799E-07
  1.9796E-07
  7.4238E-07
  7.4229E-07
  7.4221E-07
  7.4246E-07
  7.4238E-07
  7.4229E-07
  7.4254E-07
  7.4246E-07
  7.4238E-07
  2.8587E-06
  2.8585E-06
  2.8582E-06
  2.8590E-06
  2.8587E-06
  2.8585E-06
  2.8593E-06
  2.8590E-06
  2.8587E-06
  1.0550E-05
  1.0550E-05
  1.0550E-05
  1.0550E-05
  1.0550E-05
  1.0550E-05
  1.0550E-05
  1.0550E-05
  1.0550E-05
  3.9096E-05
  3.9096E-05
  3.9096E-05
  3.9095E-05
  3.9096E-05
  3.9096E-05
  3.9095E-05
  3.9095E-05
  3.9096E-05
  1.4585E-04
  1.4585E-04
  1.4585E-04
  1.4585E-04
  1.4585E-04
  1.4585E-04
  1.4585E-04
  1.4585E-04
  1.4585E-04
  5.4461E-04
  5.4461E-04
  5.4461E-04
  5.4461E-04
  5.4461E-04
  5.4461E-04
  5.4461E-04
  5.4461E-04
  5.4461E-04
  2.0336E-03
  2.0336E-03
  2.0336E-03
  2.0336E-03
  2.0336E-03
  2.0336E-03
  2.0336E-03
  2.0336E-03
  2.0336E-03
  7.5930E-03
  7.5930E-03
  7.5930E-03
  7.5930E-03
  7.5930E-03
  7.5930E-03
  7.5930E-03
  7.5930E-03
  7.5930E-03
  2.8351E-02
  2.8351E-02
  2.8351E-02
  2.8351E-02
  2.8351E-02
  2.8351E-02
  2.8351E-02
  2.8351E-02
  2.8351E-02
  1.0586E-01
  1.0586E-01
  1.0586E-01
  1.0586E-01
  1.0586E-01
  1.0586E-01
  1.0586E-01
  1.0586E-01
  1.0586E-01
  3.9520E-01
  3.9520E-01
  3.9520E-01
  3.9520E-01
  3.9520E-01
  3.9520E-01
  3.9520E-01
  3.9520E-01
  3.9520E-01
  6.2340E-01
  6.2340E-01
  6.2340E-01
  6.2340E-01
  6.2340E-01
  6.2340E-01
  6.2340E-01
  6.2340E-01
  6.2340E-01
   1.8900E-02
  5.6365E-15
  7.5990E-15
  9.5615E-15
  2.8182E-15
  5.1938E-15
  7.5693E-15
  0.0000E+00
  2.7885E-15
  5.5771E-15
  1.6854E-14
  2.2790E-14
  2.8726E-14
  8.4272E-15
  1.5599E-14
  2.2771E-14
  0.0000E+00
  8.4078E-15
  1.6816E-14
  1.3574E-13
  1.5363E-13
  1.7152E-13
  6.7868E-14
  1.1074E-13
  1.5361E-13
  0.0000E+00
  6.7855E-14
  1.3571E-13
  4.9452E-13
  5.5303E-13
  6.1153E-13
  2.4726E-13
  4.0014E-13
  5.5302E-13
  0.0000E+00
  2.4725E-13
  4.9450E-13
  1.7036E-12
  1.9312E-12
  2.1587E-12
  8.5182E-13
  1.3915E-12
  1.9312E-12
  0.0000E+00
  8.5182E-13
  1.7036E-12
  6.2637E-12
  7.1240E-12
  7.9844E-12
  3.1318E-12
  5.1279E-12
  7.1240E-12
  0.0000E+00
  3.1319E-12
  6.2637E-12
  2.3280E-11
  2.6499E-11
  2.9718E-11
  1.1640E-11
  1.9069E-11
  2.6499E-11
  0.0000E+00
  1.1640E-11
  2.3280E-11
  5.0038E-08
  5.0035E-08
  5.0032E-08
  5.0034E-08
  5.0035E-08
  5.0035E-08
  5.0030E-08
  5.0034E-08
  5.0038E-08
  2.0007E-07
  2.0005E-07
  2.0002E-07
  2.0010E-07
  2.0007E-07
  2.0005E-07
  2.0012E-07
  2.0010E-07
  2.0007E-07
  7.5029E-07
  7.5021E-07
  7.5013E-07
  7.5037E-07
  7.5029E-07
  7.5021E-07
  7.5046E-07
  7.5037E-07
  7.5029E-07
  2.8890E-06
  2.8887E-06
  2.8885E-06
  2.8892E-06
  2.8890E-06
  2.8887E-06
  2.8895E-06
  2.8892E-06
  2.8890E-06
  1.0661E-05
  1.0661E-05
  1.0661E-05
  1.0661E-05
  1.0661E-05
  1.0661E-05
  1.0661E-05
  1.0661E-05
  1.0661E-05
  3.9511E-05
  3.9511E-05
  3.9511E-05
  3.9511E-05
  3.9511E-05
  3.9511E-05
  3.9511E-05
  3.9511E-05
  3.9511E-05
  1.4740E-04
  1.4740E-04
  1.4740E-04
  1.4740E-04
  1.4740E-04
  1.4740E-04
  1.4740E-04
  1.4740E-04
  1.4740E-04
  5.5040E-04
  5.5040E-04
  5.5040E-04
  5.5040E-04
  5.5040E-04
  5.5040E-04
  5.5040E-04
  5.5040E-04
  5.5040E-04
  2.0552E-03
  2.0552E-03
  2.0552E-03
  2.0552E-03
  2.0552E-03
  2.0552E-03
  2.0552E-03
  2.0552E-03
  2.0552E-03
  7.6739E-03
  7.6739E-03
  7.6739E-03
  7.6739E-03
  7.6739E-03
  7.6739E-03
  7.6739E-03
  7.6739E-03
  7.6739E-03
  2.8653E-02
  2.8653E-02
  2.8653E-02
  2.8653E-02
  2.8653E-02
  2.8653E-02
  2.8653E-02
  2.8653E-02
  2.8653E-02
  1.0699E-01
  1.0699E-01
  1.0699E-01
  1.0699E-01
  1.0699E-01
  1.0699E-01
  1.0699E-01
  1.0699E-01
  1.0699E-01
  3.9941E-01
  3.9941E-01
  3.9941E-01
  3.9941E-01
  3.9941E-01
  3.9941E-01
  3.9941E-01
  3.9941E-01
  3.9941E-01
  6.3004E-01
  6.3004E-01
  6.3004E-01
  6.3004E-01
  6.3004E-01
  6.3004E-01
  6.3004E-01
  6.3004E-01
  6.3004E-01
   1.9000E-02
  5.7564E-15
  7.7610E-15
  9.7656E-15
  2.8782E-15
  5.3046E-15
  7.7310E-15
  0.0000E+00
  2.8482E-15
  5.6964E-15
  1.7214E-14
  2.3276E-14
  2.9339E-14
  8.6068E-15
  1.5932E-14
  2.3257E-14
  0.0000E+00
  8.5872E-15
  1.7174E-14
  1.3690E-13
  1.5523E-13
  1.7356E-13
  6.8451E-14
  1.1183E-13
  1.5522E-13
  0.0000E+00
  6.8438E-14
  1.3688E-13
  4.9894E-13
  5.5914E-13
  6.1934E-13
  2.4947E-13
  4.0430E-13
  5.5913E-13
  0.0000E+00
  2.4946E-13
  4.9892E-13
  1.7207E-12
  1.9547E-12
  2.1887E-12
  8.6036E-13
  1.4075E-12
  1.9547E-12
  0.0000E+00
  8.6036E-13
  1.7207E-12
  6.3644E-12
  7.2465E-12
  8.1286E-12
  3.1822E-12
  5.2144E-12
  7.2465E-12
  0.0000E+00
  3.1822E-12
  6.3645E-12
  2.3729E-11
  2.7022E-11
  3.0315E-11
  1.1865E-11
  1.9443E-11
  2.7022E-11
  0.0000E+00
  1.1865E-11
  2.3730E-11
  5.0569E-08
  5.0566E-08
  5.0563E-08
  5.0565E-08
  5.0566E-08
  5.0566E-08
  5.0561E-08
  5.0565E-08
  5.0569E-08
  2.0220E-07
  2.0217E-07
  2.0215E-07
  2.0222E-07
  2.0220E-07
  2.0217E-07
  2.0225E-07
  2.0222E-07
  2.0220E-07
  7.5825E-07
  7.5817E-07
  7.5808E-07
  7.5833E-07
  7.5825E-07
  7.5817E-07
  7.5842E-07
  7.5833E-07
  7.5825E-07
  2.9194E-06
  2.9191E-06
  2.9189E-06
  2.9196E-06
  2.9194E-06
  2.9191E-06
  2.9199E-06
  2.9196E-06
  2.9194E-06
  1.0774E-05
  1.0774E-05
  1.0774E-05
  1.0774E-05
  1.0774E-05
  1.0774E-05
  1.0774E-05
  1.0774E-05
  1.0774E-05
  3.9928E-05
  3.9929E-05
  3.9929E-05
  3.9928E-05
  3.9928E-05
  3.9929E-05
  3.9928E-05
  3.9928E-05
  3.9928E-05
  1.4896E-04
  1.4896E-04
  1.4896E-04
  1.4896E-04
  1.4896E-04
  1.4896E-04
  1.4896E-04
  1.4896E-04
  1.4896E-04
  5.5623E-04
  5.5623E-04
  5.5623E-04
  5.5623E-04
  5.5623E-04
  5.5623E-04
  5.5623E-04
  5.5623E-04
  5.5623E-04
  2.0770E-03
  2.0770E-03
  2.0770E-03
  2.0770E-03
  2.0770E-03
  2.0770E-03
  2.0770E-03
  2.0770E-03
  2.0770E-03
  7.7551E-03
  7.7552E-03
  7.7552E-03
  7.7551E-03
  7.7551E-03
  7.7552E-03
  7.7551E-03
  7.7551E-03
  7.7551E-03
  2.8956E-02
  2.8956E-02
  2.8956E-02
  2.8956E-02
  2.8956E-02
  2.8956E-02
  2.8956E-02
  2.8956E-02
  2.8956E-02
  1.0812E-01
  1.0812E-01
  1.0812E-01
  1.0812E-01
  1.0812E-01
  1.0812E-01
  1.0812E-01
  1.0812E-01
  1.0812E-01
  4.0365E-01
  4.0365E-01
  4.0365E-01
  4.0365E-01
  4.0365E-01
  4.0365E-01
  4.0365E-01
  4.0365E-01
  4.0365E-01
  6.3672E-01
  6.3672E-01
  6.3672E-01
  6.3672E-01
  6.3672E-01
  6.3672E-01
  6.3672E-01
  6.3672E-01
  6.3672E-01
   1.9100E-02
  5.8782E-15
  7.9255E-15
  9.9729E-15
  2.9391E-15
  5.4172E-15
  7.8952E-15
  0.0000E+00
  2.9088E-15
  5.8176E-15
  1.7578E-14
  2.3770E-14
  2.9961E-14
  8.7892E-15
  1.6270E-14
  2.3750E-14
  0.0000E+00
  8.7694E-15
  1.7539E-14
  1.3809E-13
  1.5687E-13
  1.7564E-13
  6.9046E-14
  1.1295E-13
  1.5685E-13
  0.0000E+00
  6.9032E-14
  1.3806E-13
  5.0346E-13
  5.6538E-13
  6.2730E-13
  2.5173E-13
  4.0855E-13
  5.6537E-13
  0.0000E+00
  2.5172E-13
  5.0344E-13
  1.7382E-12
  1.9787E-12
  2.2193E-12
  8.6908E-13
  1.4239E-12
  1.9787E-12
  0.0000E+00
  8.6908E-13
  1.7382E-12
  6.4663E-12
  7.3705E-12
  8.2747E-12
  3.2332E-12
  5.3018E-12
  7.3705E-12
  0.0000E+00
  3.2332E-12
  6.4664E-12
  2.4183E-11
  2.7551E-11
  3.0918E-11
  1.2092E-11
  1.9821E-11
  2.7551E-11
  0.0000E+00
  1.2092E-11
  2.4183E-11
  5.1103E-08
  5.1100E-08
  5.1097E-08
  5.1099E-08
  5.1099E-08
  5.1100E-08
  5.1095E-08
  5.1099E-08
  5.1103E-08
  2.0433E-07
  2.0430E-07
  2.0428E-07
  2.0435E-07
  2.0433E-07
  2.0430E-07
  2.0438E-07
  2.0435E-07
  2.0433E-07
  7.6625E-07
  7.6617E-07
  7.6608E-07
  7.6634E-07
  7.6625E-07
  7.6617E-07
  7.6642E-07
  7.6634E-07
  7.6625E-07
  2.9499E-06
  2.9497E-06
  2.9494E-06
  2.9502E-06
  2.9499E-06
  2.9497E-06
  2.9505E-06
  2.9502E-06
  2.9499E-06
  1.0887E-05
  1.0887E-05
  1.0887E-05
  1.0887E-05
  1.0887E-05
  1.0887E-05
  1.0887E-05
  1.0887E-05
  1.0887E-05
  4.0348E-05
  4.0348E-05
  4.0348E-05
  4.0348E-05
  4.0348E-05
  4.0348E-05
  4.0348E-05
  4.0348E-05
  4.0348E-05
  1.5052E-04
  1.5052E-04
  1.5052E-04
  1.5052E-04
  1.5052E-04
  1.5052E-04
  1.5052E-04
  1.5052E-04
  1.5052E-04
  5.6208E-04
  5.6208E-04
  5.6208E-04
  5.6208E-04
  5.6208E-04
  5.6208E-04
  5.6208E-04
  5.6208E-04
  5.6208E-04
  2.0988E-03
  2.0988E-03
  2.0988E-03
  2.0988E-03
  2.0988E-03
  2.0988E-03
  2.0988E-03
  2.0988E-03
  2.0988E-03
  7.8368E-03
  7.8368E-03
  7.8368E-03
  7.8368E-03
  7.8368E-03
  7.8368E-03
  7.8368E-03
  7.8368E-03
  7.8368E-03
  2.9262E-02
  2.9262E-02
  2.9262E-02
  2.9262E-02
  2.9262E-02
  2.9262E-02
  2.9262E-02
  2.9262E-02
  2.9262E-02
  1.0926E-01
  1.0926E-01
  1.0926E-01
  1.0926E-01
  1.0926E-01
  1.0926E-01
  1.0926E-01
  1.0926E-01
  1.0926E-01
  4.0791E-01
  4.0791E-01
  4.0791E-01
  4.0791E-01
  4.0791E-01
  4.0791E-01
  4.0791E-01
  4.0791E-01
  4.0791E-01
  6.4344E-01
  6.4344E-01
  6.4344E-01
  6.4344E-01
  6.4344E-01
  6.4344E-01
  6.4344E-01
  6.4344E-01
  6.4344E-01
   1.9200E-02
  6.0020E-15
  8.0927E-15
  1.0183E-14
  3.0010E-15
  5.5315E-15
  8.0621E-15
  0.0000E+00
  2.9703E-15
  5.9407E-15
  1.7949E-14
  2.4271E-14
  3.0594E-14
  8.9745E-15
  1.6613E-14
  2.4251E-14
  0.0000E+00
  8.9545E-15
  1.7909E-14
  1.3930E-13
  1.5854E-13
  1.7777E-13
  6.9652E-14
  1.1409E-13
  1.5852E-13
  0.0000E+00
  6.9638E-14
  1.3928E-13
  5.0807E-13
  5.7175E-13
  6.3543E-13
  2.5403E-13
  4.1289E-13
  5.7174E-13
  0.0000E+00
  2.5402E-13
  5.0805E-13
  1.7560E-12
  2.0033E-12
  2.2505E-12
  8.7798E-13
  1.4406E-12
  2.0033E-12
  0.0000E+00
  8.7798E-13
  1.7560E-12
  6.6060E-12
  7.5302E-12
  8.4544E-12
  3.3030E-12
  5.4166E-12
  7.5302E-12
  0.0000E+00
  3.3030E-12
  6.6060E-12
  2.4778E-11
  2.8209E-11
  3.1641E-11
  1.2389E-11
  2.0299E-11
  2.8209E-11
  0.0000E+00
  1.2389E-11
  2.4778E-11
  5.1639E-08
  5.1636E-08
  5.1633E-08
  5.1635E-08
  5.1636E-08
  5.1636E-08
  5.1631E-08
  5.1635E-08
  5.1639E-08
  2.0647E-07
  2.0645E-07
  2.0642E-07
  2.0650E-07
  2.0647E-07
  2.0645E-07
  2.0653E-07
  2.0650E-07
  2.0647E-07
  7.7429E-07
  7.7421E-07
  7.7412E-07
  7.7438E-07
  7.7429E-07
  7.7421E-07
  7.7447E-07
  7.7438E-07
  7.7429E-07
  2.9807E-06
  2.9804E-06
  2.9801E-06
  2.9809E-06
  2.9807E-06
  2.9804E-06
  2.9812E-06
  2.9809E-06
  2.9807E-06
  1.1000E-05
  1.1000E-05
  1.1000E-05
  1.1000E-05
  1.1000E-05
  1.1000E-05
  1.1000E-05
  1.1000E-05
  1.1000E-05
  4.0770E-05
  4.0770E-05
  4.0770E-05
  4.0770E-05
  4.0770E-05
  4.0770E-05
  4.0770E-05
  4.0770E-05
  4.0770E-05
  1.5210E-04
  1.5210E-04
  1.5210E-04
  1.5210E-04
  1.5210E-04
  1.5210E-04
  1.5210E-04
  1.5210E-04
  1.5210E-04
  5.6796E-04
  5.6796E-04
  5.6796E-04
  5.6796E-04
  5.6796E-04
  5.6796E-04
  5.6796E-04
  5.6796E-04
  5.6796E-04
  2.1208E-03
  2.1208E-03
  2.1208E-03
  2.1208E-03
  2.1208E-03
  2.1208E-03
  2.1208E-03
  2.1208E-03
  2.1208E-03
  7.9190E-03
  7.9190E-03
  7.9190E-03
  7.9190E-03
  7.9190E-03
  7.9190E-03
  7.9190E-03
  7.9190E-03
  7.9190E-03
  2.9568E-02
  2.9568E-02
  2.9568E-02
  2.9568E-02
  2.9568E-02
  2.9568E-02
  2.9568E-02
  2.9568E-02
  2.9568E-02
  1.1041E-01
  1.1041E-01
  1.1041E-01
  1.1041E-01
  1.1041E-01
  1.1041E-01
  1.1041E-01
  1.1041E-01
  1.1041E-01
  4.1219E-01
  4.1219E-01
  4.1219E-01
  4.1219E-01
  4.1219E-01
  4.1219E-01
  4.1219E-01
  4.1219E-01
  4.1219E-01
  6.5019E-01
  6.5019E-01
  6.5019E-01
  6.5019E-01
  6.5019E-01
  6.5019E-01
  6.5019E-01
  6.5019E-01
  6.5019E-01
   1.9300E-02
  6.1276E-15
  8.2625E-15
  1.0397E-14
  3.0638E-15
  5.6477E-15
  8.2316E-15
  0.0000E+00
  3.0329E-15
  6.0657E-15
  1.8326E-14
  2.4781E-14
  3.1236E-14
  9.1628E-15
  1.6962E-14
  2.4760E-14
  0.0000E+00
  9.1426E-15
  1.8285E-14
  1.4054E-13
  1.6024E-13
  1.7993E-13
  7.0270E-14
  1.1525E-13
  1.6022E-13
  0.0000E+00
  7.0256E-14
  1.4051E-13
  5.4936E-13
  6.1231E-13
  6.7527E-13
  2.7468E-13
  4.4349E-13
  6.1230E-13
  0.0000E+00
  2.7467E-13
  5.4934E-13
  1.8378E-12
  2.0848E-12
  2.3319E-12
  9.1888E-13
  1.5019E-12
  2.0848E-12
  0.0000E+00
  9.1889E-13
  1.8378E-12
  6.7372E-12
  7.6798E-12
  8.6224E-12
  3.3686E-12
  5.5242E-12
  7.6798E-12
  0.0000E+00
  3.3686E-12
  6.7372E-12
  2.5239E-11
  2.8748E-11
  3.2258E-11
  1.2620E-11
  2.0684E-11
  2.8748E-11
  0.0000E+00
  1.2620E-11
  2.5239E-11
  5.2179E-08
  5.2176E-08
  5.2172E-08
  5.2175E-08
  5.2175E-08
  5.2176E-08
  5.2171E-08
  5.2175E-08
  5.2179E-08
  2.0863E-07
  2.0860E-07
  2.0858E-07
  2.0866E-07
  2.0863E-07
  2.0860E-07
  2.0868E-07
  2.0866E-07
  2.0863E-07
  7.8238E-07
  7.8229E-07
  7.8220E-07
  7.8247E-07
  7.8238E-07
  7.8229E-07
  7.8256E-07
  7.8247E-07
  7.8238E-07
  3.0115E-06
  3.0113E-06
  3.0110E-06
  3.0118E-06
  3.0115E-06
  3.0113E-06
  3.0121E-06
  3.0118E-06
  3.0115E-06
  1.1114E-05
  1.1114E-05
  1.1114E-05
  1.1114E-05
  1.1114E-05
  1.1114E-05
  1.1114E-05
  1.1114E-05
  1.1114E-05
  4.1194E-05
  4.1194E-05
  4.1194E-05
  4.1194E-05
  4.1194E-05
  4.1194E-05
  4.1194E-05
  4.1194E-05
  4.1194E-05
  1.5368E-04
  1.5368E-04
  1.5368E-04
  1.5368E-04
  1.5368E-04
  1.5368E-04
  1.5368E-04
  1.5368E-04
  1.5368E-04
  5.7388E-04
  5.7388E-04
  5.7388E-04
  5.7388E-04
  5.7388E-04
  5.7388E-04
  5.7388E-04
  5.7388E-04
  5.7388E-04
  2.1429E-03
  2.1429E-03
  2.1429E-03
  2.1429E-03
  2.1429E-03
  2.1429E-03
  2.1429E-03
  2.1429E-03
  2.1429E-03
  8.0015E-03
  8.0015E-03
  8.0015E-03
  8.0015E-03
  8.0015E-03
  8.0015E-03
  8.0015E-03
  8.0015E-03
  8.0015E-03
  2.9877E-02
  2.9877E-02
  2.9877E-02
  2.9877E-02
  2.9877E-02
  2.9877E-02
  2.9877E-02
  2.9877E-02
  2.9877E-02
  1.1156E-01
  1.1156E-01
  1.1156E-01
  1.1156E-01
  1.1156E-01
  1.1156E-01
  1.1156E-01
  1.1156E-01
  1.1156E-01
  4.1649E-01
  4.1649E-01
  4.1649E-01
  4.1649E-01
  4.1649E-01
  4.1649E-01
  4.1649E-01
  4.1649E-01
  4.1649E-01
  6.5698E-01
  6.5698E-01
  6.5698E-01
  6.5698E-01
  6.5698E-01
  6.5698E-01
  6.5698E-01
  6.5698E-01
  6.5698E-01
   1.9400E-02
  6.2553E-15
  8.4350E-15
  1.0615E-14
  3.1277E-15
  5.7657E-15
  8.4037E-15
  0.0000E+00
  3.0964E-15
  6.1927E-15
  1.8708E-14
  2.5298E-14
  3.1888E-14
  9.3540E-15
  1.7316E-14
  2.5278E-14
  0.0000E+00
  9.3336E-15
  1.8667E-14
  1.4180E-13
  1.6197E-13
  1.8214E-13
  7.0901E-14
  1.1643E-13
  1.6196E-13
  0.0000E+00
  7.0887E-14
  1.4177E-13
  5.5400E-13
  6.1874E-13
  6.8348E-13
  2.7700E-13
  4.4787E-13
  6.1873E-13
  0.0000E+00
  2.7699E-13
  5.5398E-13
  1.9291E-12
  2.1780E-12
  2.4269E-12
  9.6454E-13
  1.5713E-12
  2.1780E-12
  0.0000E+00
  9.6455E-13
  1.9291E-12
  6.9694E-12
  7.9212E-12
  8.8730E-12
  3.4847E-12
  5.7030E-12
  7.9212E-12
  0.0000E+00
  3.4847E-12
  6.9695E-12
  2.5832E-11
  2.9406E-11
  3.2981E-11
  1.2916E-11
  2.1161E-11
  2.9406E-11
  0.0000E+00
  1.2916E-11
  2.5832E-11
  5.2721E-08
  5.2718E-08
  5.2715E-08
  5.2717E-08
  5.2717E-08
  5.2718E-08
  5.2713E-08
  5.2717E-08
  5.2721E-08
  2.1080E-07
  2.1077E-07
  2.1074E-07
  2.1082E-07
  2.1080E-07
  2.1077E-07
  2.1085E-07
  2.1082E-07
  2.1080E-07
  7.9051E-07
  7.9041E-07
  7.9032E-07
  7.9060E-07
  7.9051E-07
  7.9041E-07
  7.9069E-07
  7.9060E-07
  7.9051E-07
  3.0425E-06
  3.0423E-06
  3.0420E-06
  3.0428E-06
  3.0425E-06
  3.0423E-06
  3.0431E-06
  3.0428E-06
  3.0425E-06
  1.1229E-05
  1.1229E-05
  1.1229E-05
  1.1229E-05
  1.1229E-05
  1.1229E-05
  1.1229E-05
  1.1229E-05
  1.1229E-05
  4.1620E-05
  4.1620E-05
  4.1620E-05
  4.1620E-05
  4.1620E-05
  4.1620E-05
  4.1620E-05
  4.1620E-05
  4.1620E-05
  1.5527E-04
  1.5527E-04
  1.5527E-04
  1.5527E-04
  1.5527E-04
  1.5527E-04
  1.5527E-04
  1.5527E-04
  1.5527E-04
  5.7982E-04
  5.7982E-04
  5.7982E-04
  5.7982E-04
  5.7982E-04
  5.7982E-04
  5.7982E-04
  5.7982E-04
  5.7982E-04
  2.1651E-03
  2.1651E-03
  2.1651E-03
  2.1651E-03
  2.1651E-03
  2.1651E-03
  2.1651E-03
  2.1651E-03
  2.1651E-03
  8.0845E-03
  8.0845E-03
  8.0845E-03
  8.0845E-03
  8.0845E-03
  8.0845E-03
  8.0845E-03
  8.0845E-03
  8.0845E-03
  3.0187E-02
  3.0187E-02
  3.0187E-02
  3.0187E-02
  3.0187E-02
  3.0187E-02
  3.0187E-02
  3.0187E-02
  3.0187E-02
  1.1272E-01
  1.1272E-01
  1.1272E-01
  1.1272E-01
  1.1272E-01
  1.1272E-01
  1.1272E-01
  1.1272E-01
  1.1272E-01
  4.2081E-01
  4.2081E-01
  4.2081E-01
  4.2081E-01
  4.2081E-01
  4.2081E-01
  4.2081E-01
  4.2081E-01
  4.2081E-01
  6.6380E-01
  6.6380E-01
  6.6380E-01
  6.6380E-01
  6.6380E-01
  6.6380E-01
  6.6380E-01
  6.6380E-01
  6.6380E-01
   1.9500E-02
  6.3849E-15
  8.6101E-15
  1.0835E-14
  3.1925E-15
  5.8855E-15
  8.5785E-15
  0.0000E+00
  3.1609E-15
  6.3217E-15
  1.9096E-14
  2.5823E-14
  3.2550E-14
  9.5481E-15
  1.7675E-14
  2.5803E-14
  0.0000E+00
  9.5275E-15
  1.9055E-14
  1.4309E-13
  1.6374E-13
  1.8439E-13
  7.1543E-14
  1.1763E-13
  1.6373E-13
  0.0000E+00
  7.1529E-14
  1.4306E-13
  5.5874E-13
  6.2530E-13
  6.9186E-13
  2.7937E-13
  4.5233E-13
  6.2529E-13
  0.0000E+00
  2.7936E-13
  5.5872E-13
  1.9474E-12
  2.2033E-12
  2.4591E-12
  9.7370E-13
  1.5885E-12
  2.2033E-12
  0.0000E+00
  9.7370E-13
  1.9474E-12
  7.0753E-12
  8.0507E-12
  9.0262E-12
  3.5377E-12
  5.7942E-12
  8.0507E-12
  0.0000E+00
  3.5377E-12
  7.0753E-12
  2.6301E-11
  2.9956E-11
  3.3611E-11
  1.3151E-11
  2.1553E-11
  2.9956E-11
  0.0000E+00
  1.3151E-11
  2.6301E-11
  5.3266E-08
  5.3263E-08
  5.3259E-08
  5.3262E-08
  5.3262E-08
  5.3263E-08
  5.3257E-08
  5.3262E-08
  5.3266E-08
  2.1297E-07
  2.1295E-07
  2.1292E-07
  2.1300E-07
  2.1297E-07
  2.1295E-07
  2.1303E-07
  2.1300E-07
  2.1297E-07
  7.9867E-07
  7.9858E-07
  7.9849E-07
  7.9877E-07
  7.9867E-07
  7.9858E-07
  7.9886E-07
  7.9877E-07
  7.9867E-07
  3.0737E-06
  3.0734E-06
  3.0732E-06
  3.0740E-06
  3.0737E-06
  3.0734E-06
  3.0743E-06
  3.0740E-06
  3.0737E-06
  1.1344E-05
  1.1344E-05
  1.1344E-05
  1.1344E-05
  1.1344E-05
  1.1344E-05
  1.1344E-05
  1.1344E-05
  1.1344E-05
  4.2048E-05
  4.2049E-05
  4.2049E-05
  4.2048E-05
  4.2048E-05
  4.2049E-05
  4.2048E-05
  4.2048E-05
  4.2048E-05
  1.5687E-04
  1.5687E-04
  1.5687E-04
  1.5687E-04
  1.5687E-04
  1.5687E-04
  1.5687E-04
  1.5687E-04
  1.5687E-04
  5.8580E-04
  5.8580E-04
  5.8580E-04
  5.8580E-04
  5.8580E-04
  5.8580E-04
  5.8580E-04
  5.8580E-04
  5.8580E-04
  2.1874E-03
  2.1874E-03
  2.1874E-03
  2.1874E-03
  2.1874E-03
  2.1874E-03
  2.1874E-03
  2.1874E-03
  2.1874E-03
  8.1679E-03
  8.1679E-03
  8.1679E-03
  8.1679E-03
  8.1679E-03
  8.1679E-03
  8.1679E-03
  8.1679E-03
  8.1679E-03
  3.0498E-02
  3.0498E-02
  3.0498E-02
  3.0498E-02
  3.0498E-02
  3.0498E-02
  3.0498E-02
  3.0498E-02
  3.0498E-02
  1.1389E-01
  1.1389E-01
  1.1389E-01
  1.1389E-01
  1.1389E-01
  1.1389E-01
  1.1389E-01
  1.1389E-01
  1.1389E-01
  4.2516E-01
  4.2516E-01
  4.2516E-01
  4.2516E-01
  4.2516E-01
  4.2516E-01
  4.2516E-01
  4.2516E-01
  4.2516E-01
  6.7066E-01
  6.7066E-01
  6.7066E-01
  6.7066E-01
  6.7066E-01
  6.7066E-01
  6.7066E-01
  6.7066E-01
  6.7066E-01
   1.9600E-02
  6.5166E-15
  8.7880E-15
  1.1059E-14
  3.2583E-15
  6.0072E-15
  8.7560E-15
  0.0000E+00
  3.2264E-15
  6.4527E-15
  1.9491E-14
  2.6357E-14
  3.3223E-14
  9.7453E-15
  1.8041E-14
  2.6336E-14
  0.0000E+00
  9.7245E-15
  1.9449E-14
  1.4440E-13
  1.6554E-13
  1.8669E-13
  7.2198E-14
  1.1886E-13
  1.6553E-13
  0.0000E+00
  7.2184E-14
  1.4437E-13
  5.6359E-13
  6.3200E-13
  7.0041E-13
  2.8179E-13
  4.5689E-13
  6.3199E-13
  0.0000E+00
  2.8178E-13
  5.6357E-13
  1.9661E-12
  2.2290E-12
  2.4920E-12
  9.8304E-13
  1.6060E-12
  2.2290E-12
  0.0000E+00
  9.8305E-13
  1.9661E-12
  7.2189E-12
  8.2159E-12
  9.2129E-12
  3.6095E-12
  5.9127E-12
  8.2159E-12
  0.0000E+00
  3.6095E-12
  7.2190E-12
  2.6911E-11
  3.0636E-11
  3.4362E-11
  1.3456E-11
  2.2046E-11
  3.0637E-11
  0.0000E+00
  1.3456E-11
  2.6911E-11
  5.3814E-08
  5.3810E-08
  5.3807E-08
  5.3809E-08
  5.3810E-08
  5.3810E-08
  5.3805E-08
  5.3809E-08
  5.3814E-08
  2.1516E-07
  2.1514E-07
  2.1511E-07
  2.1519E-07
  2.1516E-07
  2.1514E-07
  2.1522E-07
  2.1519E-07
  2.1516E-07
  8.0689E-07
  8.0679E-07
  8.0669E-07
  8.0698E-07
  8.0689E-07
  8.0679E-07
  8.0708E-07
  8.0698E-07
  8.0689E-07
  3.1051E-06
  3.1048E-06
  3.1045E-06
  3.1053E-06
  3.1051E-06
  3.1048E-06
  3.1056E-06
  3.1053E-06
  3.1051E-06
  1.1460E-05
  1.1460E-05
  1.1460E-05
  1.1460E-05
  1.1460E-05
  1.1460E-05
  1.1460E-05
  1.1460E-05
  1.1460E-05
  4.2479E-05
  4.2479E-05
  4.2479E-05
  4.2479E-05
  4.2479E-05
  4.2479E-05
  4.2479E-05
  4.2479E-05
  4.2479E-05
  1.5848E-04
  1.5848E-04
  1.5848E-04
  1.5848E-04
  1.5848E-04
  1.5848E-04
  1.5848E-04
  1.5848E-04
  1.5848E-04
  5.9180E-04
  5.9180E-04
  5.9180E-04
  5.9180E-04
  5.9180E-04
  5.9180E-04
  5.9180E-04
  5.9180E-04
  5.9180E-04
  2.2099E-03
  2.2099E-03
  2.2099E-03
  2.2099E-03
  2.2099E-03
  2.2099E-03
  2.2099E-03
  2.2099E-03
  2.2099E-03
  8.2517E-03
  8.2517E-03
  8.2517E-03
  8.2517E-03
  8.2517E-03
  8.2517E-03
  8.2517E-03
  8.2517E-03
  8.2517E-03
  3.0811E-02
  3.0811E-02
  3.0811E-02
  3.0811E-02
  3.0811E-02
  3.0811E-02
  3.0811E-02
  3.0811E-02
  3.0811E-02
  1.1506E-01
  1.1506E-01
  1.1506E-01
  1.1506E-01
  1.1506E-01
  1.1506E-01
  1.1506E-01
  1.1506E-01
  1.1506E-01
  4.2953E-01
  4.2953E-01
  4.2953E-01
  4.2953E-01
  4.2953E-01
  4.2953E-01
  4.2953E-01
  4.2953E-01
  4.2953E-01
  6.7755E-01
  6.7755E-01
  6.7755E-01
  6.7755E-01
  6.7755E-01
  6.7755E-01
  6.7755E-01
  6.7755E-01
  6.7755E-01
   1.9700E-02
  6.6503E-15
  8.9686E-15
  1.1287E-14
  3.3251E-15
  6.1307E-15
  8.9363E-15
  0.0000E+00
  3.2929E-15
  6.5857E-15
  1.9891E-14
  2.6898E-14
  3.3906E-14
  9.9455E-15
  1.8411E-14
  2.6877E-14
  0.0000E+00
  9.9245E-15
  1.9849E-14
  1.4573E-13
  1.6738E-13
  1.8902E-13
  7.2866E-14
  1.2011E-13
  1.6736E-13
  0.0000E+00
  7.2851E-14
  1.4570E-13
  5.6853E-13
  6.3884E-13
  7.0914E-13
  2.8427E-13
  4.6155E-13
  6.3883E-13
  0.0000E+00
  2.8426E-13
  5.6851E-13
  1.9852E-12
  2.2553E-12
  2.5255E-12
  9.9258E-13
  1.6240E-12
  2.2553E-12
  0.0000E+00
  9.9258E-13
  1.9852E-12
  7.3272E-12
  8.3487E-12
  9.3701E-12
  3.6636E-12
  6.0061E-12
  8.3487E-12
  0.0000E+00
  3.6636E-12
  7.3272E-12
  2.7389E-11
  3.1198E-11
  3.5007E-11
  1.3694E-11
  2.2446E-11
  3.1198E-11
  0.0000E+00
  1.3694E-11
  2.7389E-11
  5.4364E-08
  5.4361E-08
  5.4357E-08
  5.4360E-08
  5.4360E-08
  5.4361E-08
  5.4355E-08
  5.4360E-08
  5.4364E-08
  2.1736E-07
  2.1734E-07
  2.1731E-07
  2.1739E-07
  2.1736E-07
  2.1734E-07
  2.1742E-07
  2.1739E-07
  2.1736E-07
  8.1514E-07
  8.1504E-07
  8.1494E-07
  8.1523E-07
  8.1514E-07
  8.1504E-07
  8.1533E-07
  8.1523E-07
  8.1514E-07
  3.1366E-06
  3.1363E-06
  3.1360E-06
  3.1368E-06
  3.1366E-06
  3.1363E-06
  3.1371E-06
  3.1368E-06
  3.1366E-06
  1.1576E-05
  1.1576E-05
  1.1576E-05
  1.1576E-05
  1.1576E-05
  1.1576E-05
  1.1576E-05
  1.1576E-05
  1.1576E-05
  4.2912E-05
  4.2912E-05
  4.2912E-05
  4.2911E-05
  4.2912E-05
  4.2912E-05
  4.2911E-05
  4.2911E-05
  4.2912E-05
  1.6009E-04
  1.6009E-04
  1.6009E-04
  1.6009E-04
  1.6009E-04
  1.6009E-04
  1.6009E-04
  1.6009E-04
  1.6009E-04
  5.9784E-04
  5.9784E-04
  5.9784E-04
  5.9784E-04
  5.9784E-04
  5.9784E-04
  5.9784E-04
  5.9784E-04
  5.9784E-04
  2.2324E-03
  2.2324E-03
  2.2324E-03
  2.2324E-03
  2.2324E-03
  2.2324E-03
  2.2324E-03
  2.2324E-03
  2.2324E-03
  8.3359E-03
  8.3359E-03
  8.3359E-03
  8.3359E-03
  8.3359E-03
  8.3359E-03
  8.3359E-03
  8.3359E-03
  8.3359E-03
  3.1126E-02
  3.1126E-02
  3.1126E-02
  3.1126E-02
  3.1126E-02
  3.1126E-02
  3.1126E-02
  3.1126E-02
  3.1126E-02
  1.1623E-01
  1.1623E-01
  1.1623E-01
  1.1623E-01
  1.1623E-01
  1.1623E-01
  1.1623E-01
  1.1623E-01
  1.1623E-01
  4.3392E-01
  4.3392E-01
  4.3392E-01
  4.3392E-01
  4.3392E-01
  4.3392E-01
  4.3392E-01
  4.3392E-01
  4.3392E-01
  6.8448E-01
  6.8448E-01
  6.8448E-01
  6.8448E-01
  6.8448E-01
  6.8448E-01
  6.8448E-01
  6.8448E-01
  6.8448E-01
   1.9800E-02
  6.7860E-15
  9.1519E-15
  1.1518E-14
  3.3930E-15
  6.2562E-15
  9.1193E-15
  0.0000E+00
  3.3604E-15
  6.7208E-15
  2.0297E-14
  2.7448E-14
  3.4599E-14
  1.0149E-14
  1.8788E-14
  2.7427E-14
  0.0000E+00
  1.0128E-14
  2.0255E-14
  1.4709E-13
  1.6925E-13
  1.9140E-13
  7.3546E-14
  1.2139E-13
  1.6923E-13
  0.0000E+00
  7.3531E-14
  1.4706E-13
  5.7358E-13
  6.4581E-13
  7.1804E-13
  2.8679E-13
  4.6630E-13
  6.4580E-13
  0.0000E+00
  2.8678E-13
  5.7356E-13
  2.0046E-12
  2.2821E-12
  2.5597E-12
  1.0023E-12
  1.6422E-12
  2.2821E-12
  0.0000E+00
  1.0023E-12
  2.0046E-12
  7.4732E-12
  8.5171E-12
  9.5611E-12
  3.7366E-12
  6.1269E-12
  8.5172E-12
  0.0000E+00
  3.7366E-12
  7.4732E-12
  2.8007E-11
  3.1889E-11
  3.5772E-11
  1.4004E-11
  2.2946E-11
  3.1889E-11
  0.0000E+00
  1.4004E-11
  2.8007E-11
  5.4918E-08
  5.4914E-08
  5.4911E-08
  5.4913E-08
  5.4914E-08
  5.4914E-08
  5.4909E-08
  5.4913E-08
  5.4918E-08
  2.1958E-07
  2.1955E-07
  2.1952E-07
  2.1961E-07
  2.1958E-07
  2.1955E-07
  2.1963E-07
  2.1961E-07
  2.1958E-07
  8.2343E-07
  8.2333E-07
  8.2323E-07
  8.2353E-07
  8.2343E-07
  8.2333E-07
  8.2363E-07
  8.2353E-07
  8.2343E-07
  3.1682E-06
  3.1679E-06
  3.1676E-06
  3.1685E-06
  3.1682E-06
  3.1679E-06
  3.1688E-06
  3.1685E-06
  3.1682E-06
  1.1693E-05
  1.1693E-05
  1.1693E-05
  1.1693E-05
  1.1693E-05
  1.1693E-05
  1.1693E-05
  1.1693E-05
  1.1693E-05
  4.3346E-05
  4.3347E-05
  4.3347E-05
  4.3346E-05
  4.3346E-05
  4.3347E-05
  4.3346E-05
  4.3346E-05
  4.3346E-05
  1.6172E-04
  1.6172E-04
  1.6172E-04
  1.6172E-04
  1.6172E-04
  1.6172E-04
  1.6172E-04
  1.6172E-04
  1.6172E-04
  6.0391E-04
  6.0391E-04
  6.0391E-04
  6.0391E-04
  6.0391E-04
  6.0391E-04
  6.0391E-04
  6.0391E-04
  6.0391E-04
  2.2551E-03
  2.2551E-03
  2.2551E-03
  2.2551E-03
  2.2551E-03
  2.2551E-03
  2.2551E-03
  2.2551E-03
  2.2551E-03
  8.4206E-03
  8.4206E-03
  8.4206E-03
  8.4206E-03
  8.4206E-03
  8.4206E-03
  8.4206E-03
  8.4206E-03
  8.4206E-03
  3.1442E-02
  3.1442E-02
  3.1442E-02
  3.1442E-02
  3.1442E-02
  3.1442E-02
  3.1442E-02
  3.1442E-02
  3.1442E-02
  1.1741E-01
  1.1741E-01
  1.1741E-01
  1.1741E-01
  1.1741E-01
  1.1741E-01
  1.1741E-01
  1.1741E-01
  1.1741E-01
  4.3833E-01
  4.3833E-01
  4.3833E-01
  4.3833E-01
  4.3833E-01
  4.3833E-01
  4.3833E-01
  4.3833E-01
  4.3833E-01
  6.9144E-01
  6.9144E-01
  6.9144E-01
  6.9144E-01
  6.9144E-01
  6.9144E-01
  6.9144E-01
  6.9144E-01
  6.9144E-01
   1.9900E-02
  6.9238E-15
  9.3381E-15
  1.1752E-14
  3.4619E-15
  6.3835E-15
  9.3052E-15
  0.0000E+00
  3.4290E-15
  6.8579E-15
  2.0710E-14
  2.8007E-14
  3.5303E-14
  1.0355E-14
  1.9170E-14
  2.7985E-14
  0.0000E+00
  1.0334E-14
  2.0667E-14
  1.4848E-13
  1.7115E-13
  1.9383E-13
  7.4239E-14
  1.2269E-13
  1.7114E-13
  0.0000E+00
  7.4224E-14
  1.4845E-13
  5.7873E-13
  6.5293E-13
  7.2712E-13
  2.8937E-13
  4.7114E-13
  6.5291E-13
  0.0000E+00
  2.8936E-13
  5.7871E-13
  2.0977E-12
  2.3776E-12
  2.6576E-12
  1.0488E-12
  1.7132E-12
  2.3776E-12
  0.0000E+00
  1.0488E-12
  2.0977E-12
  7.7112E-12
  8.7664E-12
  9.8216E-12
  3.8556E-12
  6.3110E-12
  8.7664E-12
  0.0000E+00
  3.8556E-12
  7.7112E-12
  2.8620E-11
  3.2575E-11
  3.6530E-11
  1.4310E-11
  2.3443E-11
  3.2575E-11
  0.0000E+00
  1.4310E-11
  2.8620E-11
  5.5474E-08
  5.5470E-08
  5.5467E-08
  5.5469E-08
  5.5470E-08
  5.5470E-08
  5.5465E-08
  5.5469E-08
  5.5474E-08
  2.2180E-07
  2.2177E-07
  2.2174E-07
  2.2183E-07
  2.2180E-07
  2.2177E-07
  2.2186E-07
  2.2183E-07
  2.2180E-07
  8.3177E-07
  8.3167E-07
  8.3157E-07
  8.3187E-07
  8.3177E-07
  8.3167E-07
  8.3197E-07
  8.3187E-07
  8.3177E-07
  3.2000E-06
  3.1997E-06
  3.1994E-06
  3.2003E-06
  3.2000E-06
  3.1997E-06
  3.2006E-06
  3.2003E-06
  3.2000E-06
  1.1811E-05
  1.1811E-05
  1.1811E-05
  1.1811E-05
  1.1811E-05
  1.1811E-05
  1.1811E-05
  1.1811E-05
  1.1811E-05
  4.3783E-05
  4.3783E-05
  4.3784E-05
  4.3783E-05
  4.3783E-05
  4.3783E-05
  4.3783E-05
  4.3783E-05
  4.3783E-05
  1.6335E-04
  1.6335E-04
  1.6335E-04
  1.6335E-04
  1.6335E-04
  1.6335E-04
  1.6335E-04
  1.6335E-04
  1.6335E-04
  6.1000E-04
  6.1000E-04
  6.1000E-04
  6.1000E-04
  6.1000E-04
  6.1000E-04
  6.1000E-04
  6.1000E-04
  6.1000E-04
  2.2779E-03
  2.2779E-03
  2.2779E-03
  2.2779E-03
  2.2779E-03
  2.2779E-03
  2.2779E-03
  2.2779E-03
  2.2779E-03
  8.5057E-03
  8.5057E-03
  8.5057E-03
  8.5057E-03
  8.5057E-03
  8.5057E-03
  8.5057E-03
  8.5057E-03
  8.5057E-03
  3.1760E-02
  3.1760E-02
  3.1760E-02
  3.1760E-02
  3.1760E-02
  3.1760E-02
  3.1760E-02
  3.1760E-02
  3.1760E-02
  1.1860E-01
  1.1860E-01
  1.1860E-01
  1.1860E-01
  1.1860E-01
  1.1860E-01
  1.1860E-01
  1.1860E-01
  1.1860E-01
  4.4277E-01
  4.4277E-01
  4.4277E-01
  4.4277E-01
  4.4277E-01
  4.4277E-01
  4.4277E-01
  4.4277E-01
  4.4277E-01
  6.9844E-01
  6.9844E-01
  6.9844E-01
  6.9844E-01
  6.9844E-01
  6.9844E-01
  6.9844E-01
  6.9844E-01
  6.9844E-01
   2.0000E-02
  7.0636E-15
  9.5271E-15
  1.1991E-14
  3.5318E-15
  6.5128E-15
  9.4938E-15
  0.0000E+00
  3.4986E-15
  6.9971E-15
  2.1129E-14
  2.8574E-14
  3.6018E-14
  1.0565E-14
  1.9558E-14
  2.8552E-14
  0.0000E+00
  1.0543E-14
  2.1086E-14
  1.4989E-13
  1.7310E-13
  1.9630E-13
  7.4945E-14
  1.2401E-13
  1.7308E-13
  0.0000E+00
  7.4930E-14
  1.4986E-13
  5.8399E-13
  6.6018E-13
  7.3637E-13
  2.9200E-13
  4.7608E-13
  6.6017E-13
  0.0000E+00
  2.9198E-13
  5.8397E-13
  2.1176E-12
  2.4051E-12
  2.6926E-12
  1.0588E-12
  1.7319E-12
  2.4051E-12
  0.0000E+00
  1.0588E-12
  2.1176E-12
  7.8225E-12
  8.9035E-12
  9.9844E-12
  3.9113E-12
  6.4074E-12
  8.9035E-12
  0.0000E+00
  3.9113E-12
  7.8226E-12
  2.9110E-11
  3.3153E-11
  3.7197E-11
  1.4555E-11
  2.3854E-11
  3.3153E-11
  0.0000E+00
  1.4555E-11
  2.9110E-11
  5.6033E-08
  5.6029E-08
  5.6026E-08
  5.6028E-08
  5.6029E-08
  5.6029E-08
  5.6024E-08
  5.6028E-08
  5.6033E-08
  2.2403E-07
  2.2400E-07
  2.2397E-07
  2.2406E-07
  2.2403E-07
  2.2400E-07
  2.2409E-07
  2.2406E-07
  2.2403E-07
  8.4015E-07
  8.4004E-07
  8.3994E-07
  8.4025E-07
  8.4015E-07
  8.4004E-07
  8.4035E-07
  8.4025E-07
  8.4015E-07
  3.2320E-06
  3.2317E-06
  3.2314E-06
  3.2323E-06
  3.2320E-06
  3.2317E-06
  3.2326E-06
  3.2323E-06
  3.2320E-06
  1.1929E-05
  1.1929E-05
  1.1929E-05
  1.1929E-05
  1.1929E-05
  1.1929E-05
  1.1929E-05
  1.1929E-05
  1.1929E-05
  4.4222E-05
  4.4223E-05
  4.4223E-05
  4.4222E-05
  4.4222E-05
  4.4223E-05
  4.4222E-05
  4.4222E-05
  4.4222E-05
  1.6499E-04
  1.6499E-04
  1.6499E-04
  1.6499E-04
  1.6499E-04
  1.6499E-04
  1.6499E-04
  1.6499E-04
  1.6499E-04
  6.1613E-04
  6.1613E-04
  6.1613E-04
  6.1613E-04
  6.1613E-04
  6.1613E-04
  6.1613E-04
  6.1613E-04
  6.1613E-04
  2.3008E-03
  2.3008E-03
  2.3008E-03
  2.3008E-03
  2.3008E-03
  2.3008E-03
  2.3008E-03
  2.3008E-03
  2.3008E-03
  8.5912E-03
  8.5912E-03
  8.5912E-03
  8.5912E-03
  8.5912E-03
  8.5912E-03
  8.5912E-03
  8.5912E-03
  8.5912E-03
  3.2080E-02
  3.2080E-02
  3.2080E-02
  3.2080E-02
  3.2080E-02
  3.2080E-02
  3.2080E-02
  3.2080E-02
  3.2080E-02
  1.1979E-01
  1.1979E-01
  1.1979E-01
  1.1979E-01
  1.1979E-01
  1.1979E-01
  1.1979E-01
  1.1979E-01
  1.1979E-01
  4.4723E-01
  4.4723E-01
  4.4723E-01
  4.4723E-01
  4.4723E-01
  4.4723E-01
  4.4723E-01
  4.4723E-01
  4.4723E-01
  7.0547E-01
  7.0547E-01
  7.0547E-01
  7.0547E-01
  7.0547E-01
  7.0547E-01
  7.0547E-01
  7.0547E-01
  7.0547E-01
   2.0100E-02
  7.2056E-15
  9.7189E-15
  1.2232E-14
  3.6028E-15
  6.6441E-15
  9.6853E-15
  0.0000E+00
  3.5692E-15
  7.1384E-15
  2.1554E-14
  2.9149E-14
  3.6744E-14
  1.0777E-14
  1.9952E-14
  2.9127E-14
  0.0000E+00
  1.0755E-14
  2.1511E-14
  1.5133E-13
  1.7507E-13
  1.9882E-13
  7.5665E-14
  1.2536E-13
  1.7506E-13
  0.0000E+00
  7.5650E-14
  1.5130E-13
  5.8935E-13
  6.6758E-13
  7.4581E-13
  2.9468E-13
  4.8112E-13
  6.6757E-13
  0.0000E+00
  2.9466E-13
  5.8933E-13
  2.1379E-12
  2.4331E-12
  2.7283E-12
  1.0689E-12
  1.7510E-12
  2.4331E-12
  0.0000E+00
  1.0689E-12
  2.1379E-12
  7.9717E-12
  9.0763E-12
  1.0181E-11
  3.9859E-12
  6.5311E-12
  9.0763E-12
  0.0000E+00
  3.9859E-12
  7.9718E-12
  2.9741E-11
  3.3862E-11
  3.7983E-11
  1.4870E-11
  2.4366E-11
  3.3862E-11
  0.0000E+00
  1.4870E-11
  2.9741E-11
  5.6595E-08
  5.6591E-08
  5.6587E-08
  5.6590E-08
  5.6591E-08
  5.6591E-08
  5.6585E-08
  5.6590E-08
  5.6595E-08
  2.2628E-07
  2.2625E-07
  2.2622E-07
  2.2631E-07
  2.2628E-07
  2.2625E-07
  2.2634E-07
  2.2631E-07
  2.2628E-07
  8.4857E-07
  8.4846E-07
  8.4836E-07
  8.4867E-07
  8.4857E-07
  8.4846E-07
  8.4878E-07
  8.4867E-07
  8.4857E-07
  3.2641E-06
  3.2638E-06
  3.2635E-06
  3.2644E-06
  3.2641E-06
  3.2638E-06
  3.2647E-06
  3.2644E-06
  3.2641E-06
  1.2048E-05
  1.2048E-05
  1.2048E-05
  1.2048E-05
  1.2048E-05
  1.2048E-05
  1.2048E-05
  1.2048E-05
  1.2048E-05
  4.4664E-05
  4.4664E-05
  4.4664E-05
  4.4664E-05
  4.4664E-05
  4.4664E-05
  4.4663E-05
  4.4664E-05
  4.4664E-05
  1.6664E-04
  1.6664E-04
  1.6664E-04
  1.6664E-04
  1.6664E-04
  1.6664E-04
  1.6664E-04
  1.6664E-04
  1.6664E-04
  6.2229E-04
  6.2229E-04
  6.2229E-04
  6.2229E-04
  6.2229E-04
  6.2229E-04
  6.2229E-04
  6.2229E-04
  6.2229E-04
  2.3238E-03
  2.3238E-03
  2.3238E-03
  2.3238E-03
  2.3238E-03
  2.3238E-03
  2.3238E-03
  2.3238E-03
  2.3238E-03
  8.6772E-03
  8.6772E-03
  8.6772E-03
  8.6772E-03
  8.6772E-03
  8.6772E-03
  8.6772E-03
  8.6772E-03
  8.6772E-03
  3.2401E-02
  3.2401E-02
  3.2401E-02
  3.2401E-02
  3.2401E-02
  3.2401E-02
  3.2401E-02
  3.2401E-02
  3.2401E-02
  1.2099E-01
  1.2099E-01
  1.2099E-01
  1.2099E-01
  1.2099E-01
  1.2099E-01
  1.2099E-01
  1.2099E-01
  1.2099E-01
  4.5171E-01
  4.5171E-01
  4.5171E-01
  4.5171E-01
  4.5171E-01
  4.5171E-01
  4.5171E-01
  4.5171E-01
  4.5171E-01
  7.1254E-01
  7.1254E-01
  7.1254E-01
  7.1254E-01
  7.1254E-01
  7.1254E-01
  7.1254E-01
  7.1254E-01
  7.1254E-01
   2.0200E-02
  7.3497E-15
  9.9136E-15
  1.2478E-14
  3.6749E-15
  6.7773E-15
  9.8797E-15
  0.0000E+00
  3.6409E-15
  7.2818E-15
  2.1986E-14
  2.9733E-14
  3.7480E-14
  1.0993E-14
  2.0352E-14
  2.9711E-14
  0.0000E+00
  1.0971E-14
  2.1942E-14
  1.5280E-13
  1.7709E-13
  2.0138E-13
  7.6398E-14
  1.2674E-13
  1.7707E-13
  0.0000E+00
  7.6382E-14
  1.5276E-13
  5.9482E-13
  6.7513E-13
  7.5543E-13
  2.9741E-13
  4.8626E-13
  6.7511E-13
  0.0000E+00
  2.9740E-13
  5.9480E-13
  2.1586E-12
  2.4616E-12
  2.7646E-12
  1.0793E-12
  1.7705E-12
  2.4616E-12
  0.0000E+00
  1.0793E-12
  2.1586E-12
  8.0856E-12
  9.2168E-12
  1.0348E-11
  4.0428E-12
  6.6298E-12
  9.2168E-12
  0.0000E+00
  4.0428E-12
  8.0856E-12
  3.0312E-11
  3.4520E-11
  3.8728E-11
  1.5156E-11
  2.4838E-11
  3.4520E-11
  0.0000E+00
  1.5156E-11
  3.0312E-11
  5.7159E-08
  5.7156E-08
  5.7152E-08
  5.7155E-08
  5.7155E-08
  5.7156E-08
  5.7150E-08
  5.7155E-08
  5.7159E-08
  2.2854E-07
  2.2850E-07
  2.2847E-07
  2.2857E-07
  2.2853E-07
  2.2850E-07
  2.2860E-07
  2.2857E-07
  2.2854E-07
  8.5703E-07
  8.5692E-07
  8.5681E-07
  8.5714E-07
  8.5703E-07
  8.5692E-07
  8.5724E-07
  8.5714E-07
  8.5703E-07
  3.2964E-06
  3.2961E-06
  3.2958E-06
  3.2967E-06
  3.2964E-06
  3.2961E-06
  3.2970E-06
  3.2967E-06
  3.2964E-06
  1.2167E-05
  1.2167E-05
  1.2167E-05
  1.2167E-05
  1.2167E-05
  1.2167E-05
  1.2167E-05
  1.2167E-05
  1.2167E-05
  4.5107E-05
  4.5107E-05
  4.5107E-05
  4.5107E-05
  4.5107E-05
  4.5107E-05
  4.5107E-05
  4.5107E-05
  4.5107E-05
  1.6829E-04
  1.6829E-04
  1.6829E-04
  1.6829E-04
  1.6829E-04
  1.6829E-04
  1.6829E-04
  1.6829E-04
  1.6829E-04
  6.2847E-04
  6.2847E-04
  6.2847E-04
  6.2847E-04
  6.2847E-04
  6.2847E-04
  6.2847E-04
  6.2847E-04
  6.2847E-04
  2.3469E-03
  2.3469E-03
  2.3469E-03
  2.3469E-03
  2.3469E-03
  2.3469E-03
  2.3469E-03
  2.3469E-03
  2.3469E-03
  8.7636E-03
  8.7636E-03
  8.7636E-03
  8.7636E-03
  8.7636E-03
  8.7636E-03
  8.7636E-03
  8.7636E-03
  8.7636E-03
  3.2724E-02
  3.2724E-02
  3.2724E-02
  3.2724E-02
  3.2724E-02
  3.2724E-02
  3.2724E-02
  3.2724E-02
  3.2724E-02
  1.2220E-01
  1.2220E-01
  1.2220E-01
  1.2220E-01
  1.2220E-01
  1.2220E-01
  1.2220E-01
  1.2220E-01
  1.2220E-01
  4.5621E-01
  4.5621E-01
  4.5621E-01
  4.5621E-01
  4.5621E-01
  4.5621E-01
  4.5621E-01
  4.5621E-01
  4.5621E-01
  7.1965E-01
  7.1965E-01
  7.1965E-01
  7.1965E-01
  7.1965E-01
  7.1965E-01
  7.1965E-01
  7.1965E-01
  7.1965E-01
   2.0300E-02
  7.4960E-15
  1.0111E-14
  1.2726E-14
  3.7480E-15
  6.9125E-15
  1.0077E-14
  0.0000E+00
  3.7137E-15
  7.4274E-15
  2.2424E-14
  3.0326E-14
  3.8227E-14
  1.1212E-14
  2.0758E-14
  3.0304E-14
  0.0000E+00
  1.1190E-14
  2.2380E-14
  1.5429E-13
  1.7914E-13
  2.0399E-13
  7.7144E-14
  1.2813E-13
  1.7912E-13
  0.0000E+00
  7.7129E-14
  1.5426E-13
  6.3698E-13
  7.1687E-13
  7.9676E-13
  3.1849E-13
  5.1767E-13
  7.1686E-13
  0.0000E+00
  3.1848E-13
  6.3695E-13
  2.2433E-12
  2.5472E-12
  2.8511E-12
  1.1217E-12
  1.8345E-12
  2.5472E-12
  0.0000E+00
  1.1217E-12
  2.2433E-12
  8.2643E-12
  9.4156E-12
  1.0567E-11
  4.1322E-12
  6.7739E-12
  9.4156E-12
  0.0000E+00
  4.1322E-12
  8.2644E-12
  3.0878E-11
  3.5173E-11
  3.9467E-11
  1.5439E-11
  2.5306E-11
  3.5173E-11
  0.0000E+00
  1.5439E-11
  3.0879E-11
  5.7727E-08
  5.7723E-08
  5.7719E-08
  5.7722E-08
  5.7722E-08
  5.7723E-08
  5.7717E-08
  5.7722E-08
  5.7727E-08
  2.3080E-07
  2.3077E-07
  2.3074E-07
  2.3084E-07
  2.3080E-07
  2.3077E-07
  2.3087E-07
  2.3084E-07
  2.3080E-07
  8.6553E-07
  8.6542E-07
  8.6531E-07
  8.6564E-07
  8.6553E-07
  8.6542E-07
  8.6575E-07
  8.6564E-07
  8.6553E-07
  3.3288E-06
  3.3285E-06
  3.3282E-06
  3.3291E-06
  3.3288E-06
  3.3285E-06
  3.3294E-06
  3.3291E-06
  3.3288E-06
  1.2287E-05
  1.2287E-05
  1.2287E-05
  1.2287E-05
  1.2287E-05
  1.2287E-05
  1.2287E-05
  1.2287E-05
  1.2287E-05
  4.5553E-05
  4.5553E-05
  4.5553E-05
  4.5553E-05
  4.5553E-05
  4.5553E-05
  4.5552E-05
  4.5553E-05
  4.5553E-05
  1.6996E-04
  1.6996E-04
  1.6996E-04
  1.6996E-04
  1.6996E-04
  1.6996E-04
  1.6996E-04
  1.6996E-04
  1.6996E-04
  6.3469E-04
  6.3469E-04
  6.3469E-04
  6.3469E-04
  6.3469E-04
  6.3469E-04
  6.3469E-04
  6.3469E-04
  6.3469E-04
  2.3701E-03
  2.3701E-03
  2.3701E-03
  2.3701E-03
  2.3701E-03
  2.3701E-03
  2.3701E-03
  2.3701E-03
  2.3701E-03
  8.8504E-03
  8.8504E-03
  8.8504E-03
  8.8504E-03
  8.8504E-03
  8.8504E-03
  8.8504E-03
  8.8504E-03
  8.8504E-03
  3.3048E-02
  3.3048E-02
  3.3048E-02
  3.3048E-02
  3.3048E-02
  3.3048E-02
  3.3048E-02
  3.3048E-02
  3.3048E-02
  1.2341E-01
  1.2341E-01
  1.2341E-01
  1.2341E-01
  1.2341E-01
  1.2341E-01
  1.2341E-01
  1.2341E-01
  1.2341E-01
  4.6074E-01
  4.6074E-01
  4.6074E-01
  4.6074E-01
  4.6074E-01
  4.6074E-01
  4.6074E-01
  4.6074E-01
  4.6074E-01
  7.2678E-01
  7.2678E-01
  7.2678E-01
  7.2678E-01
  7.2678E-01
  7.2678E-01
  7.2678E-01
  7.2678E-01
  7.2678E-01
   2.0400E-02
  7.6444E-15
  1.0312E-14
  1.2979E-14
  3.8222E-15
  7.0497E-15
  1.0277E-14
  0.0000E+00
  3.7876E-15
  7.5752E-15
  2.2869E-14
  3.0927E-14
  3.8986E-14
  1.1434E-14
  2.1170E-14
  3.0905E-14
  0.0000E+00
  1.1412E-14
  2.2824E-14
  1.5581E-13
  1.8123E-13
  2.0665E-13
  7.7905E-14
  1.2956E-13
  1.8121E-13
  0.0000E+00
  7.7889E-14
  1.5578E-13
  6.4251E-13
  7.2451E-13
  8.0651E-13
  3.2125E-13
  5.2288E-13
  7.2450E-13
  0.0000E+00
  3.2124E-13
  6.4248E-13
  2.3378E-12
  2.6447E-12
  2.9516E-12
  1.1689E-12
  1.9068E-12
  2.6447E-12
  0.0000E+00
  1.1689E-12
  2.3378E-12
  8.5080E-12
  9.6727E-12
  1.0837E-11
  4.2540E-12
  6.9633E-12
  9.6727E-12
  0.0000E+00
  4.2540E-12
  8.5080E-12
  3.1513E-11
  3.5888E-11
  4.0263E-11
  1.5756E-11
  2.5822E-11
  3.5888E-11
  0.0000E+00
  1.5756E-11
  3.1513E-11
  5.8297E-08
  5.8293E-08
  5.8289E-08
  5.8292E-08
  5.8293E-08
  5.8293E-08
  5.8287E-08
  5.8292E-08
  5.8297E-08
  2.3308E-07
  2.3305E-07
  2.3302E-07
  2.3311E-07
  2.3308E-07
  2.3305E-07
  2.3315E-07
  2.3311E-07
  2.3308E-07
  8.7408E-07
  8.7397E-07
  8.7386E-07
  8.7419E-07
  8.7408E-07
  8.7397E-07
  8.7430E-07
  8.7419E-07
  8.7408E-07
  3.3614E-06
  3.3611E-06
  3.3608E-06
  3.3617E-06
  3.3614E-06
  3.3611E-06
  3.3620E-06
  3.3617E-06
  3.3614E-06
  1.2407E-05
  1.2407E-05
  1.2407E-05
  1.2407E-05
  1.2407E-05
  1.2407E-05
  1.2407E-05
  1.2407E-05
  1.2407E-05
  4.6000E-05
  4.6001E-05
  4.6001E-05
  4.6000E-05
  4.6000E-05
  4.6001E-05
  4.6000E-05
  4.6000E-05
  4.6000E-05
  1.7163E-04
  1.7163E-04
  1.7163E-04
  1.7163E-04
  1.7163E-04
  1.7163E-04
  1.7163E-04
  1.7163E-04
  1.7163E-04
  6.4094E-04
  6.4094E-04
  6.4094E-04
  6.4094E-04
  6.4094E-04
  6.4094E-04
  6.4094E-04
  6.4094E-04
  6.4094E-04
  2.3935E-03
  2.3935E-03
  2.3935E-03
  2.3935E-03
  2.3935E-03
  2.3935E-03
  2.3935E-03
  2.3935E-03
  2.3935E-03
  8.9376E-03
  8.9376E-03
  8.9376E-03
  8.9376E-03
  8.9376E-03
  8.9376E-03
  8.9376E-03
  8.9376E-03
  8.9376E-03
  3.3374E-02
  3.3374E-02
  3.3374E-02
  3.3374E-02
  3.3374E-02
  3.3374E-02
  3.3374E-02
  3.3374E-02
  3.3374E-02
  1.2463E-01
  1.2463E-01
  1.2463E-01
  1.2463E-01
  1.2463E-01
  1.2463E-01
  1.2463E-01
  1.2463E-01
  1.2463E-01
  4.6528E-01
  4.6528E-01
  4.6528E-01
  4.6528E-01
  4.6528E-01
  4.6528E-01
  4.6528E-01
  4.6528E-01
  4.6528E-01
  7.3396E-01
  7.3396E-01
  7.3396E-01
  7.3396E-01
  7.3396E-01
  7.3396E-01
  7.3396E-01
  7.3396E-01
  7.3396E-01
   2.0500E-02
  7.7950E-15
  1.0515E-14
  1.3236E-14
  3.8975E-15
  7.1889E-15
  1.0480E-14
  0.0000E+00
  3.8626E-15
  7.7251E-15
  2.3320E-14
  3.1538E-14
  3.9756E-14
  1.1660E-14
  2.1588E-14
  3.1515E-14
  0.0000E+00
  1.1637E-14
  2.3275E-14
  1.5736E-13
  1.8335E-13
  2.0935E-13
  7.8679E-14
  1.3101E-13
  1.8334E-13
  0.0000E+00
  7.8663E-14
  1.5733E-13
  6.4815E-13
  7.3229E-13
  8.1644E-13
  3.2407E-13
  5.2818E-13
  7.3228E-13
  0.0000E+00
  3.2406E-13
  6.4812E-13
  2.3592E-12
  2.6742E-12
  2.9892E-12
  1.1796E-12
  1.9269E-12
  2.6742E-12
  0.0000E+00
  1.1796E-12
  2.3592E-12
  8.6617E-12
  9.8517E-12
  1.1042E-11
  4.3308E-12
  7.0913E-12
  9.8517E-12
  0.0000E+00
  4.3309E-12
  8.6617E-12
  3.2161E-11
  3.6620E-11
  4.1080E-11
  1.6080E-11
  2.6350E-11
  3.6620E-11
  0.0000E+00
  1.6081E-11
  3.2161E-11
  5.8870E-08
  5.8866E-08
  5.8862E-08
  5.8865E-08
  5.8866E-08
  5.8866E-08
  5.8860E-08
  5.8865E-08
  5.8870E-08
  2.3537E-07
  2.3534E-07
  2.3530E-07
  2.3541E-07
  2.3537E-07
  2.3534E-07
  2.3544E-07
  2.3541E-07
  2.3537E-07
  8.8267E-07
  8.8255E-07
  8.8244E-07
  8.8278E-07
  8.8267E-07
  8.8255E-07
  8.8290E-07
  8.8278E-07
  8.8267E-07
  3.3941E-06
  3.3938E-06
  3.3935E-06
  3.3944E-06
  3.3941E-06
  3.3938E-06
  3.3947E-06
  3.3944E-06
  3.3941E-06
  1.2528E-05
  1.2528E-05
  1.2528E-05
  1.2528E-05
  1.2528E-05
  1.2528E-05
  1.2528E-05
  1.2528E-05
  1.2528E-05
  4.6450E-05
  4.6451E-05
  4.6451E-05
  4.6450E-05
  4.6450E-05
  4.6451E-05
  4.6450E-05
  4.6450E-05
  4.6450E-05
  1.7331E-04
  1.7331E-04
  1.7331E-04
  1.7331E-04
  1.7331E-04
  1.7331E-04
  1.7331E-04
  1.7331E-04
  1.7331E-04
  6.4722E-04
  6.4722E-04
  6.4722E-04
  6.4722E-04
  6.4722E-04
  6.4722E-04
  6.4722E-04
  6.4722E-04
  6.4722E-04
  2.4169E-03
  2.4169E-03
  2.4169E-03
  2.4169E-03
  2.4169E-03
  2.4169E-03
  2.4169E-03
  2.4169E-03
  2.4169E-03
  9.0252E-03
  9.0252E-03
  9.0252E-03
  9.0252E-03
  9.0252E-03
  9.0252E-03
  9.0252E-03
  9.0252E-03
  9.0252E-03
  3.3701E-02
  3.3701E-02
  3.3701E-02
  3.3701E-02
  3.3701E-02
  3.3701E-02
  3.3701E-02
  3.3701E-02
  3.3701E-02
  1.2585E-01
  1.2585E-01
  1.2585E-01
  1.2585E-01
  1.2585E-01
  1.2585E-01
  1.2585E-01
  1.2585E-01
  1.2585E-01
  4.6985E-01
  4.6985E-01
  4.6985E-01
  4.6985E-01
  4.6985E-01
  4.6985E-01
  4.6985E-01
  4.6985E-01
  4.6985E-01
  7.4117E-01
  7.4117E-01
  7.4117E-01
  7.4117E-01
  7.4117E-01
  7.4117E-01
  7.4117E-01
  7.4117E-01
  7.4117E-01
   2.0600E-02
  7.9478E-15
  1.0722E-14
  1.3496E-14
  3.9739E-15
  7.3302E-15
  1.0687E-14
  0.0000E+00
  3.9386E-15
  7.8773E-15
  2.3778E-14
  3.2157E-14
  4.0537E-14
  1.1889E-14
  2.2012E-14
  3.2135E-14
  0.0000E+00
  1.1866E-14
  2.3732E-14
  1.5893E-13
  1.8552E-13
  2.1210E-13
  7.9467E-14
  1.3248E-13
  1.8550E-13
  0.0000E+00
  7.9451E-14
  1.5890E-13
  6.5390E-13
  7.4023E-13
  8.2656E-13
  3.2695E-13
  5.3358E-13
  7.4022E-13
  0.0000E+00
  3.2694E-13
  6.5387E-13
  2.3810E-12
  2.7042E-12
  3.0275E-12
  1.1905E-12
  1.9473E-12
  2.7042E-12
  0.0000E+00
  1.1905E-12
  2.3810E-12
  8.8167E-12
  1.0033E-11
  1.1248E-11
  4.4083E-12
  7.2205E-12
  1.0033E-11
  0.0000E+00
  4.4084E-12
  8.8167E-12
  3.2814E-11
  3.7359E-11
  4.1905E-11
  1.6407E-11
  2.6883E-11
  3.7359E-11
  0.0000E+00
  1.6407E-11
  3.2814E-11
  5.9446E-08
  5.9442E-08
  5.9438E-08
  5.9441E-08
  5.9441E-08
  5.9442E-08
  5.9435E-08
  5.9441E-08
  5.9446E-08
  2.3767E-07
  2.3764E-07
  2.3760E-07
  2.3771E-07
  2.3767E-07
  2.3764E-07
  2.3774E-07
  2.3771E-07
  2.3767E-07
  8.9130E-07
  8.9118E-07
  8.9107E-07
  8.9141E-07
  8.9130E-07
  8.9118E-07
  8.9153E-07
  8.9141E-07
  8.9130E-07
  3.4270E-06
  3.4267E-06
  3.4264E-06
  3.4273E-06
  3.4270E-06
  3.4267E-06
  3.4276E-06
  3.4273E-06
  3.4270E-06
  1.2650E-05
  1.2650E-05
  1.2650E-05
  1.2650E-05
  1.2650E-05
  1.2650E-05
  1.2649E-05
  1.2650E-05
  1.2650E-05
  4.6902E-05
  4.6903E-05
  4.6903E-05
  4.6902E-05
  4.6902E-05
  4.6903E-05
  4.6902E-05
  4.6902E-05
  4.6902E-05
  1.7500E-04
  1.7500E-04
  1.7500E-04
  1.7500E-04
  1.7500E-04
  1.7500E-04
  1.7500E-04
  1.7500E-04
  1.7500E-04
  6.5353E-04
  6.5353E-04
  6.5353E-04
  6.5353E-04
  6.5353E-04
  6.5353E-04
  6.5353E-04
  6.5353E-04
  6.5353E-04
  2.4405E-03
  2.4405E-03
  2.4405E-03
  2.4405E-03
  2.4405E-03
  2.4405E-03
  2.4405E-03
  2.4405E-03
  2.4405E-03
  9.1133E-03
  9.1133E-03
  9.1133E-03
  9.1133E-03
  9.1133E-03
  9.1133E-03
  9.1133E-03
  9.1133E-03
  9.1133E-03
  3.4030E-02
  3.4030E-02
  3.4030E-02
  3.4030E-02
  3.4030E-02
  3.4030E-02
  3.4030E-02
  3.4030E-02
  3.4030E-02
  1.2708E-01
  1.2708E-01
  1.2708E-01
  1.2708E-01
  1.2708E-01
  1.2708E-01
  1.2708E-01
  1.2708E-01
  1.2708E-01
  4.7445E-01
  4.7445E-01
  4.7445E-01
  4.7445E-01
  4.7445E-01
  4.7445E-01
  4.7445E-01
  4.7445E-01
  4.7445E-01
  7.4841E-01
  7.4841E-01
  7.4841E-01
  7.4841E-01
  7.4841E-01
  7.4841E-01
  7.4841E-01
  7.4841E-01
  7.4841E-01
   2.0700E-02
  8.1029E-15
  1.0931E-14
  1.3760E-14
  4.0515E-15
  7.4736E-15
  1.0896E-14
  0.0000E+00
  4.0158E-15
  8.0316E-15
  2.4243E-14
  3.2786E-14
  4.1329E-14
  1.2121E-14
  2.2442E-14
  3.2763E-14
  0.0000E+00
  1.2098E-14
  2.4196E-14
  1.6054E-13
  1.8772E-13
  2.1490E-13
  8.0269E-14
  1.3399E-13
  1.8770E-13
  0.0000E+00
  8.0253E-14
  1.6051E-13
  6.5976E-13
  7.4832E-13
  8.3687E-13
  3.2988E-13
  5.3909E-13
  7.4830E-13
  0.0000E+00
  3.2987E-13
  6.5973E-13
  2.4032E-12
  2.7348E-12
  3.0664E-12
  1.2016E-12
  1.9682E-12
  2.7348E-12
  0.0000E+00
  1.2016E-12
  2.4032E-12
  8.9364E-12
  1.0181E-11
  1.1426E-11
  4.4682E-12
  7.3247E-12
  1.0181E-11
  0.0000E+00
  4.4682E-12
  8.9364E-12
  3.3407E-11
  3.8048E-11
  4.2688E-11
  1.6704E-11
  2.7376E-11
  3.8048E-11
  0.0000E+00
  1.6704E-11
  3.3407E-11
  6.0025E-08
  6.0020E-08
  6.0016E-08
  6.0019E-08
  6.0020E-08
  6.0020E-08
  6.0014E-08
  6.0019E-08
  6.0025E-08
  2.3999E-07
  2.3995E-07
  2.3992E-07
  2.4002E-07
  2.3999E-07
  2.3995E-07
  2.4006E-07
  2.4002E-07
  2.3999E-07
  8.9997E-07
  8.9985E-07
  8.9973E-07
  9.0009E-07
  8.9997E-07
  8.9985E-07
  9.0021E-07
  9.0009E-07
  8.9997E-07
  3.4601E-06
  3.4598E-06
  3.4595E-06
  3.4604E-06
  3.4601E-06
  3.4598E-06
  3.4607E-06
  3.4604E-06
  3.4601E-06
  1.2772E-05
  1.2772E-05
  1.2772E-05
  1.2772E-05
  1.2772E-05
  1.2772E-05
  1.2772E-05
  1.2772E-05
  1.2772E-05
  4.7357E-05
  4.7357E-05
  4.7357E-05
  4.7356E-05
  4.7357E-05
  4.7357E-05
  4.7356E-05
  4.7356E-05
  4.7357E-05
  1.7670E-04
  1.7670E-04
  1.7670E-04
  1.7670E-04
  1.7670E-04
  1.7670E-04
  1.7670E-04
  1.7670E-04
  1.7670E-04
  6.5987E-04
  6.5987E-04
  6.5987E-04
  6.5987E-04
  6.5987E-04
  6.5987E-04
  6.5987E-04
  6.5987E-04
  6.5987E-04
  2.4642E-03
  2.4642E-03
  2.4642E-03
  2.4642E-03
  2.4642E-03
  2.4642E-03
  2.4642E-03
  2.4642E-03
  2.4642E-03
  9.2018E-03
  9.2018E-03
  9.2018E-03
  9.2018E-03
  9.2018E-03
  9.2018E-03
  9.2018E-03
  9.2018E-03
  9.2018E-03
  3.4361E-02
  3.4361E-02
  3.4361E-02
  3.4361E-02
  3.4361E-02
  3.4361E-02
  3.4361E-02
  3.4361E-02
  3.4361E-02
  1.2832E-01
  1.2832E-01
  1.2832E-01
  1.2832E-01
  1.2832E-01
  1.2832E-01
  1.2832E-01
  1.2832E-01
  1.2832E-01
  4.7906E-01
  4.7906E-01
  4.7906E-01
  4.7906E-01
  4.7906E-01
  4.7906E-01
  4.7906E-01
  4.7906E-01
  4.7906E-01
  7.5569E-01
  7.5569E-01
  7.5569E-01
  7.5569E-01
  7.5569E-01
  7.5569E-01
  7.5569E-01
  7.5569E-01
  7.5569E-01
   2.0800E-02
  8.2602E-15
  1.1144E-14
  1.4028E-14
  4.1301E-15
  7.6190E-15
  1.1108E-14
  0.0000E+00
  4.0941E-15
  8.1883E-15
  2.4714E-14
  3.3424E-14
  4.2133E-14
  1.2357E-14
  2.2879E-14
  3.3400E-14
  0.0000E+00
  1.2334E-14
  2.4667E-14
  1.6217E-13
  1.8996E-13
  2.1775E-13
  8.1086E-14
  1.3552E-13
  1.8995E-13
  0.0000E+00
  8.1069E-14
  1.6214E-13
  6.6573E-13
  7.5656E-13
  8.4738E-13
  3.3287E-13
  5.4471E-13
  7.5654E-13
  0.0000E+00
  3.3285E-13
  6.6571E-13
  2.4258E-12
  2.7660E-12
  3.1061E-12
  1.2129E-12
  1.9894E-12
  2.7660E-12
  0.0000E+00
  1.2129E-12
  2.4258E-12
  9.0940E-12
  1.0366E-11
  1.1637E-11
  4.5470E-12
  7.4563E-12
  1.0366E-11
  0.0000E+00
  4.5470E-12
  9.0940E-12
  3.4069E-11
  3.8799E-11
  4.3529E-11
  1.7034E-11
  2.7917E-11
  3.8799E-11
  0.0000E+00
  1.7034E-11
  3.4069E-11
  6.0606E-08
  6.0602E-08
  6.0598E-08
  6.0601E-08
  6.0601E-08
  6.0602E-08
  6.0595E-08
  6.0601E-08
  6.0606E-08
  2.4231E-07
  2.4227E-07
  2.4224E-07
  2.4234E-07
  2.4231E-07
  2.4227E-07
  2.4238E-07
  2.4234E-07
  2.4231E-07
  9.0869E-07
  9.0856E-07
  9.0844E-07
  9.0881E-07
  9.0868E-07
  9.0856E-07
  9.0893E-07
  9.0881E-07
  9.0869E-07
  3.4933E-06
  3.4930E-06
  3.4927E-06
  3.4936E-06
  3.4933E-06
  3.4930E-06
  3.4939E-06
  3.4936E-06
  3.4933E-06
  1.2894E-05
  1.2894E-05
  1.2894E-05
  1.2894E-05
  1.2894E-05
  1.2894E-05
  1.2894E-05
  1.2894E-05
  1.2894E-05
  4.7813E-05
  4.7813E-05
  4.7813E-05
  4.7813E-05
  4.7813E-05
  4.7813E-05
  4.7813E-05
  4.7813E-05
  4.7813E-05
  1.7840E-04
  1.7840E-04
  1.7840E-04
  1.7840E-04
  1.7840E-04
  1.7840E-04
  1.7840E-04
  1.7840E-04
  1.7840E-04
  6.6624E-04
  6.6624E-04
  6.6624E-04
  6.6624E-04
  6.6624E-04
  6.6624E-04
  6.6624E-04
  6.6624E-04
  6.6624E-04
  2.4880E-03
  2.4880E-03
  2.4880E-03
  2.4880E-03
  2.4880E-03
  2.4880E-03
  2.4880E-03
  2.4880E-03
  2.4880E-03
  9.2907E-03
  9.2907E-03
  9.2907E-03
  9.2907E-03
  9.2907E-03
  9.2907E-03
  9.2907E-03
  9.2907E-03
  9.2907E-03
  3.4693E-02
  3.4693E-02
  3.4693E-02
  3.4693E-02
  3.4693E-02
  3.4693E-02
  3.4693E-02
  3.4693E-02
  3.4693E-02
  1.2956E-01
  1.2956E-01
  1.2956E-01
  1.2956E-01
  1.2956E-01
  1.2956E-01
  1.2956E-01
  1.2956E-01
  1.2956E-01
  4.8370E-01
  4.8370E-01
  4.8370E-01
  4.8370E-01
  4.8370E-01
  4.8370E-01
  4.8370E-01
  4.8370E-01
  4.8370E-01
  7.6301E-01
  7.6301E-01
  7.6301E-01
  7.6301E-01
  7.6301E-01
  7.6301E-01
  7.6301E-01
  7.6301E-01
  7.6301E-01
   2.0900E-02
  8.4198E-15
  1.1360E-14
  1.4299E-14
  4.2099E-15
  7.7666E-15
  1.1323E-14
  0.0000E+00
  4.1736E-15
  8.3472E-15
  2.5192E-14
  3.4071E-14
  4.2949E-14
  1.2596E-14
  2.3322E-14
  3.4047E-14
  0.0000E+00
  1.2573E-14
  2.5145E-14
  1.6383E-13
  1.9224E-13
  2.2066E-13
  8.1917E-14
  1.3707E-13
  1.9223E-13
  0.0000E+00
  8.1900E-14
  1.6380E-13
  6.7182E-13
  7.6495E-13
  8.5807E-13
  3.3591E-13
  5.5042E-13
  7.6494E-13
  0.0000E+00
  3.3590E-13
  6.7180E-13
  2.5220E-12
  2.8658E-12
  3.2096E-12
  1.2610E-12
  2.0634E-12
  2.8658E-12
  0.0000E+00
  1.2610E-12
  2.5220E-12
  9.3436E-12
  1.0631E-11
  1.1918E-11
  4.6718E-12
  7.6513E-12
  1.0631E-11
  0.0000E+00
  4.6718E-12
  9.3436E-12
  3.4725E-11
  3.9545E-11
  4.4364E-11
  1.7363E-11
  2.8454E-11
  3.9545E-11
  0.0000E+00
  1.7363E-11
  3.4726E-11
  6.1190E-08
  6.1186E-08
  6.1182E-08
  6.1185E-08
  6.1185E-08
  6.1186E-08
  6.1179E-08
  6.1185E-08
  6.1190E-08
  2.4464E-07
  2.4461E-07
  2.4457E-07
  2.4468E-07
  2.4464E-07
  2.4461E-07
  2.4472E-07
  2.4468E-07
  2.4464E-07
  9.1744E-07
  9.1732E-07
  9.1719E-07
  9.1756E-07
  9.1744E-07
  9.1732E-07
  9.1769E-07
  9.1756E-07
  9.1744E-07
  3.5267E-06
  3.5264E-06
  3.5260E-06
  3.5270E-06
  3.5267E-06
  3.5264E-06
  3.5273E-06
  3.5270E-06
  3.5267E-06
  1.3018E-05
  1.3018E-05
  1.3018E-05
  1.3018E-05
  1.3018E-05
  1.3018E-05
  1.3018E-05
  1.3018E-05
  1.3018E-05
  4.8272E-05
  4.8272E-05
  4.8272E-05
  4.8271E-05
  4.8272E-05
  4.8272E-05
  4.8271E-05
  4.8271E-05
  4.8272E-05
  1.8011E-04
  1.8011E-04
  1.8011E-04
  1.8011E-04
  1.8011E-04
  1.8011E-04
  1.8011E-04
  1.8011E-04
  1.8011E-04
  6.7264E-04
  6.7264E-04
  6.7264E-04
  6.7264E-04
  6.7264E-04
  6.7264E-04
  6.7264E-04
  6.7264E-04
  6.7264E-04
  2.5119E-03
  2.5119E-03
  2.5119E-03
  2.5119E-03
  2.5119E-03
  2.5119E-03
  2.5119E-03
  2.5119E-03
  2.5119E-03
  9.3801E-03
  9.3801E-03
  9.3801E-03
  9.3801E-03
  9.3801E-03
  9.3801E-03
  9.3801E-03
  9.3801E-03
  9.3801E-03
  3.5027E-02
  3.5027E-02
  3.5027E-02
  3.5027E-02
  3.5027E-02
  3.5027E-02
  3.5027E-02
  3.5027E-02
  3.5027E-02
  1.3081E-01
  1.3081E-01
  1.3081E-01
  1.3081E-01
  1.3081E-01
  1.3081E-01
  1.3081E-01
  1.3081E-01
  1.3081E-01
  4.8836E-01
  4.8836E-01
  4.8836E-01
  4.8836E-01
  4.8836E-01
  4.8836E-01
  4.8836E-01
  4.8836E-01
  4.8836E-01
  7.7036E-01
  7.7036E-01
  7.7036E-01
  7.7036E-01
  7.7036E-01
  7.7036E-01
  7.7036E-01
  7.7036E-01
  7.7036E-01
   2.1000E-02
  8.5817E-15
  1.1578E-14
  1.4575E-14
  4.2909E-15
  7.9163E-15
  1.1542E-14
  0.0000E+00
  4.2542E-15
  8.5084E-15
  2.5677E-14
  3.4727E-14
  4.3777E-14
  1.2839E-14
  2.3771E-14
  3.4703E-14
  0.0000E+00
  1.2815E-14
  2.5630E-14
  1.6553E-13
  1.9457E-13
  2.2361E-13
  8.2763E-14
  1.3866E-13
  1.9455E-13
  0.0000E+00
  8.2746E-14
  1.6549E-13
  6.7803E-13
  7.7350E-13
  8.6897E-13
  3.3901E-13
  5.5625E-13
  7.7349E-13
  0.0000E+00
  3.3900E-13
  6.7800E-13
  2.5451E-12
  2.8977E-12
  3.2503E-12
  1.2726E-12
  2.0851E-12
  2.8977E-12
  0.0000E+00
  1.2726E-12
  2.5451E-12
  9.5034E-12
  1.0818E-11
  1.2133E-11
  4.7517E-12
  7.7850E-12
  1.0818E-11
  0.0000E+00
  4.7517E-12
  9.5035E-12
  3.5396E-11
  4.0308E-11
  4.5221E-11
  1.7698E-11
  2.9003E-11
  4.0309E-11
  0.0000E+00
  1.7698E-11
  3.5396E-11
  6.1777E-08
  6.1773E-08
  6.1769E-08
  6.1772E-08
  6.1772E-08
  6.1773E-08
  6.1766E-08
  6.1772E-08
  6.1777E-08
  2.4699E-07
  2.4695E-07
  2.4692E-07
  2.4703E-07
  2.4699E-07
  2.4695E-07
  2.4706E-07
  2.4703E-07
  2.4699E-07
  9.2624E-07
  9.2611E-07
  9.2599E-07
  9.2636E-07
  9.2624E-07
  9.2611E-07
  9.2649E-07
  9.2636E-07
  9.2624E-07
  3.5602E-06
  3.5599E-06
  3.5596E-06
  3.5605E-06
  3.5602E-06
  3.5599E-06
  3.5608E-06
  3.5605E-06
  3.5602E-06
  1.3142E-05
  1.3142E-05
  1.3142E-05
  1.3141E-05
  1.3142E-05
  1.3142E-05
  1.3141E-05
  1.3141E-05
  1.3142E-05
  4.8732E-05
  4.8732E-05
  4.8733E-05
  4.8732E-05
  4.8732E-05
  4.8732E-05
  4.8732E-05
  4.8732E-05
  4.8732E-05
  1.8183E-04
  1.8183E-04
  1.8183E-04
  1.8183E-04
  1.8183E-04
  1.8183E-04
  1.8183E-04
  1.8183E-04
  1.8183E-04
  6.7906E-04
  6.7907E-04
  6.7907E-04
  6.7906E-04
  6.7906E-04
  6.7907E-04
  6.7906E-04
  6.7906E-04
  6.7906E-04
  2.5359E-03
  2.5359E-03
  2.5359E-03
  2.5359E-03
  2.5359E-03
  2.5359E-03
  2.5359E-03
  2.5359E-03
  2.5359E-03
  9.4698E-03
  9.4698E-03
  9.4698E-03
  9.4698E-03
  9.4698E-03
  9.4698E-03
  9.4698E-03
  9.4698E-03
  9.4698E-03
  3.5362E-02
  3.5362E-02
  3.5362E-02
  3.5362E-02
  3.5362E-02
  3.5362E-02
  3.5362E-02
  3.5362E-02
  3.5362E-02
  1.3206E-01
  1.3206E-01
  1.3206E-01
  1.3206E-01
  1.3206E-01
  1.3206E-01
  1.3206E-01
  1.3206E-01
  1.3206E-01
  4.9304E-01
  4.9304E-01
  4.9304E-01
  4.9304E-01
  4.9304E-01
  4.9304E-01
  4.9304E-01
  4.9304E-01
  4.9304E-01
  7.7774E-01
  7.7774E-01
  7.7774E-01
  7.7774E-01
  7.7774E-01
  7.7774E-01
  7.7774E-01
  7.7774E-01
  7.7774E-01
   2.1100E-02
  8.7460E-15
  1.1800E-14
  1.4855E-14
  4.3730E-15
  8.0682E-15
  1.1763E-14
  0.0000E+00
  4.3360E-15
  8.6719E-15
  2.6169E-14
  3.5393E-14
  4.4616E-14
  1.3085E-14
  2.4227E-14
  3.5369E-14
  0.0000E+00
  1.3061E-14
  2.6121E-14
  1.6725E-13
  1.9693E-13
  2.2661E-13
  8.3624E-14
  1.4027E-13
  1.9691E-13
  0.0000E+00
  8.3607E-14
  1.6721E-13
  6.8435E-13
  7.8221E-13
  8.8006E-13
  3.4218E-13
  5.6218E-13
  7.8219E-13
  0.0000E+00
  3.4216E-13
  6.8433E-13
  2.5687E-12
  2.9302E-12
  3.2917E-12
  1.2844E-12
  2.1073E-12
  2.9302E-12
  0.0000E+00
  1.2844E-12
  2.5688E-12
  9.6646E-12
  1.1008E-11
  1.2351E-11
  4.8323E-12
  7.9200E-12
  1.1008E-11
  0.0000E+00
  4.8323E-12
  9.6647E-12
  3.6072E-11
  4.1079E-11
  4.6086E-11
  1.8036E-11
  2.9557E-11
  4.1079E-11
  0.0000E+00
  1.8036E-11
  3.6072E-11
  6.2367E-08
  6.2363E-08
  6.2358E-08
  6.2361E-08
  6.2362E-08
  6.2363E-08
  6.2356E-08
  6.2361E-08
  6.2367E-08
  2.4935E-07
  2.4931E-07
  2.4927E-07
  2.4938E-07
  2.4935E-07
  2.4931E-07
  2.4942E-07
  2.4938E-07
  2.4935E-07
  9.3508E-07
  9.3495E-07
  9.3482E-07
  9.3521E-07
  9.3508E-07
  9.3495E-07
  9.3533E-07
  9.3521E-07
  9.3508E-07
  3.5939E-06
  3.5936E-06
  3.5932E-06
  3.5942E-06
  3.5939E-06
  3.5936E-06
  3.5945E-06
  3.5942E-06
  3.5939E-06
  1.3266E-05
  1.3266E-05
  1.3266E-05
  1.3266E-05
  1.3266E-05
  1.3266E-05
  1.3266E-05
  1.3266E-05
  1.3266E-05
  4.9195E-05
  4.9195E-05
  4.9195E-05
  4.9195E-05
  4.9195E-05
  4.9195E-05
  4.9195E-05
  4.9195E-05
  4.9195E-05
  1.8356E-04
  1.8356E-04
  1.8356E-04
  1.8356E-04
  1.8356E-04
  1.8356E-04
  1.8356E-04
  1.8356E-04
  1.8356E-04
  6.8553E-04
  6.8553E-04
  6.8553E-04
  6.8552E-04
  6.8553E-04
  6.8553E-04
  6.8552E-04
  6.8552E-04
  6.8553E-04
  2.5600E-03
  2.5600E-03
  2.5600E-03
  2.5600E-03
  2.5600E-03
  2.5600E-03
  2.5600E-03
  2.5600E-03
  2.5600E-03
  9.5600E-03
  9.5600E-03
  9.5600E-03
  9.5600E-03
  9.5600E-03
  9.5600E-03
  9.5600E-03
  9.5600E-03
  9.5600E-03
  3.5699E-02
  3.5699E-02
  3.5699E-02
  3.5699E-02
  3.5699E-02
  3.5699E-02
  3.5699E-02
  3.5699E-02
  3.5699E-02
  1.3332E-01
  1.3332E-01
  1.3332E-01
  1.3332E-01
  1.3332E-01
  1.3332E-01
  1.3332E-01
  1.3332E-01
  1.3332E-01
  4.9774E-01
  4.9774E-01
  4.9774E-01
  4.9774E-01
  4.9774E-01
  4.9774E-01
  4.9774E-01
  4.9774E-01
  4.9774E-01
  7.8516E-01
  7.8516E-01
  7.8516E-01
  7.8516E-01
  7.8516E-01
  7.8516E-01
  7.8516E-01
  7.8516E-01
  7.8516E-01
   2.1200E-02
  8.9125E-15
  1.2025E-14
  1.5138E-14
  4.4563E-15
  8.2222E-15
  1.1988E-14
  0.0000E+00
  4.4189E-15
  8.8378E-15
  2.6668E-14
  3.6068E-14
  4.5467E-14
  1.3334E-14
  2.4689E-14
  3.6044E-14
  0.0000E+00
  1.3310E-14
  2.6620E-14
  1.6900E-13
  1.9933E-13
  2.2966E-13
  8.4500E-14
  1.4191E-13
  1.9931E-13
  0.0000E+00
  8.4483E-14
  1.6897E-13
  7.2732E-13
  8.2507E-13
  9.2282E-13
  3.6366E-13
  5.9436E-13
  8.2506E-13
  0.0000E+00
  3.6365E-13
  7.2729E-13
  2.6563E-12
  3.0198E-12
  3.3832E-12
  1.3282E-12
  2.1740E-12
  3.0198E-12
  0.0000E+00
  1.3282E-12
  2.6563E-12
  9.8176E-12
  1.1187E-11
  1.2557E-11
  4.9088E-12
  8.0481E-12
  1.1187E-11
  0.0000E+00
  4.9088E-12
  9.8177E-12
  3.6761E-11
  4.1867E-11
  4.6973E-11
  1.8381E-11
  3.0124E-11
  4.1867E-11
  0.0000E+00
  1.8381E-11
  3.6761E-11
  6.2960E-08
  6.2955E-08
  6.2951E-08
  6.2954E-08
  6.2955E-08
  6.2955E-08
  6.2948E-08
  6.2954E-08
  6.2960E-08
  2.5172E-07
  2.5168E-07
  2.5164E-07
  2.5175E-07
  2.5172E-07
  2.5168E-07
  2.5179E-07
  2.5175E-07
  2.5172E-07
  9.4396E-07
  9.4383E-07
  9.4370E-07
  9.4409E-07
  9.4396E-07
  9.4383E-07
  9.4422E-07
  9.4409E-07
  9.4396E-07
  3.6277E-06
  3.6274E-06
  3.6271E-06
  3.6280E-06
  3.6277E-06
  3.6274E-06
  3.6283E-06
  3.6280E-06
  3.6277E-06
  1.3391E-05
  1.3391E-05
  1.3391E-05
  1.3391E-05
  1.3391E-05
  1.3391E-05
  1.3391E-05
  1.3391E-05
  1.3391E-05
  4.9660E-05
  4.9660E-05
  4.9660E-05
  4.9660E-05
  4.9660E-05
  4.9660E-05
  4.9660E-05
  4.9660E-05
  4.9660E-05
  1.8530E-04
  1.8530E-04
  1.8530E-04
  1.8530E-04
  1.8530E-04
  1.8530E-04
  1.8530E-04
  1.8530E-04
  1.8530E-04
  6.9202E-04
  6.9202E-04
  6.9202E-04
  6.9202E-04
  6.9202E-04
  6.9202E-04
  6.9202E-04
  6.9202E-04
  6.9202E-04
  2.5843E-03
  2.5843E-03
  2.5843E-03
  2.5843E-03
  2.5843E-03
  2.5843E-03
  2.5843E-03
  2.5843E-03
  2.5843E-03
  9.6506E-03
  9.6506E-03
  9.6506E-03
  9.6506E-03
  9.6506E-03
  9.6506E-03
  9.6506E-03
  9.6506E-03
  9.6506E-03
  3.6038E-02
  3.6038E-02
  3.6038E-02
  3.6038E-02
  3.6038E-02
  3.6038E-02
  3.6038E-02
  3.6038E-02
  3.6038E-02
  1.3459E-01
  1.3459E-01
  1.3459E-01
  1.3459E-01
  1.3459E-01
  1.3459E-01
  1.3459E-01
  1.3459E-01
  1.3459E-01
  5.0247E-01
  5.0247E-01
  5.0247E-01
  5.0247E-01
  5.0247E-01
  5.0247E-01
  5.0247E-01
  5.0247E-01
  5.0247E-01
  7.9262E-01
  7.9262E-01
  7.9262E-01
  7.9262E-01
  7.9262E-01
  7.9262E-01
  7.9262E-01
  7.9262E-01
  7.9262E-01
   2.1300E-02
  9.0815E-15
  1.2254E-14
  1.5426E-14
  4.5407E-15
  8.3784E-15
  1.2216E-14
  0.0000E+00
  4.5030E-15
  9.0060E-15
  2.7174E-14
  3.6753E-14
  4.6331E-14
  1.3587E-14
  2.5158E-14
  3.6728E-14
  0.0000E+00
  1.3563E-14
  2.7126E-14
  1.7078E-13
  2.0177E-13
  2.3277E-13
  8.5391E-14
  1.4357E-13
  2.0176E-13
  0.0000E+00
  8.5373E-14
  1.7075E-13
  7.3373E-13
  8.3390E-13
  9.3408E-13
  3.6686E-13
  6.0038E-13
  8.3389E-13
  0.0000E+00
  3.6685E-13
  7.3370E-13
  2.6806E-12
  3.0532E-12
  3.4258E-12
  1.3403E-12
  2.1967E-12
  3.0532E-12
  0.0000E+00
  1.3403E-12
  2.6806E-12
  9.9815E-12
  1.1380E-11
  1.2779E-11
  4.9907E-12
  8.1856E-12
  1.1380E-11
  0.0000E+00
  4.9908E-12
  9.9815E-12
  3.7446E-11
  4.2650E-11
  4.7854E-11
  1.8723E-11
  3.0687E-11
  4.2650E-11
  0.0000E+00
  1.8723E-11
  3.7446E-11
  6.3555E-08
  6.3551E-08
  6.3546E-08
  6.3549E-08
  6.3550E-08
  6.3551E-08
  6.3543E-08
  6.3549E-08
  6.3555E-08
  2.5409E-07
  2.5406E-07
  2.5402E-07
  2.5413E-07
  2.5409E-07
  2.5406E-07
  2.5417E-07
  2.5413E-07
  2.5409E-07
  9.5288E-07
  9.5275E-07
  9.5262E-07
  9.5302E-07
  9.5288E-07
  9.5275E-07
  9.5315E-07
  9.5302E-07
  9.5288E-07
  3.6617E-06
  3.6614E-06
  3.6611E-06
  3.6620E-06
  3.6617E-06
  3.6614E-06
  3.6623E-06
  3.6620E-06
  3.6617E-06
  1.3517E-05
  1.3517E-05
  1.3517E-05
  1.3516E-05
  1.3517E-05
  1.3517E-05
  1.3516E-05
  1.3516E-05
  1.3517E-05
  5.0127E-05
  5.0127E-05
  5.0128E-05
  5.0127E-05
  5.0127E-05
  5.0127E-05
  5.0127E-05
  5.0127E-05
  5.0127E-05
  1.8704E-04
  1.8704E-04
  1.8704E-04
  1.8704E-04
  1.8704E-04
  1.8704E-04
  1.8704E-04
  1.8704E-04
  1.8704E-04
  6.9854E-04
  6.9854E-04
  6.9854E-04
  6.9854E-04
  6.9854E-04
  6.9854E-04
  6.9854E-04
  6.9854E-04
  6.9854E-04
  2.6087E-03
  2.6087E-03
  2.6087E-03
  2.6087E-03
  2.6087E-03
  2.6087E-03
  2.6087E-03
  2.6087E-03
  2.6087E-03
  9.7417E-03
  9.7417E-03
  9.7417E-03
  9.7417E-03
  9.7417E-03
  9.7417E-03
  9.7417E-03
  9.7417E-03
  9.7417E-03
  3.6378E-02
  3.6378E-02
  3.6378E-02
  3.6378E-02
  3.6378E-02
  3.6378E-02
  3.6378E-02
  3.6378E-02
  3.6378E-02
  1.3586E-01
  1.3586E-01
  1.3586E-01
  1.3586E-01
  1.3586E-01
  1.3586E-01
  1.3586E-01
  1.3586E-01
  1.3586E-01
  5.0722E-01
  5.0722E-01
  5.0722E-01
  5.0722E-01
  5.0722E-01
  5.0722E-01
  5.0722E-01
  5.0722E-01
  5.0722E-01
  8.0011E-01
  8.0011E-01
  8.0011E-01
  8.0011E-01
  8.0011E-01
  8.0011E-01
  8.0011E-01
  8.0011E-01
  8.0011E-01
   2.1400E-02
  9.2528E-15
  1.2485E-14
  1.5718E-14
  4.6264E-15
  8.5368E-15
  1.2447E-14
  0.0000E+00
  4.5883E-15
  9.1766E-15
  2.7688E-14
  3.7447E-14
  4.7206E-14
  1.3844E-14
  2.5633E-14
  3.7423E-14
  0.0000E+00
  1.3819E-14
  2.7639E-14
  1.7259E-13
  2.0426E-13
  2.3592E-13
  8.6297E-14
  1.4527E-13
  2.0424E-13
  0.0000E+00
  8.6280E-14
  1.7256E-13
  7.4025E-13
  8.4290E-13
  9.4554E-13
  3.7013E-13
  6.0650E-13
  8.4288E-13
  0.0000E+00
  3.7011E-13
  7.4023E-13
  2.7782E-12
  3.1550E-12
  3.5319E-12
  1.3891E-12
  2.2721E-12
  3.1551E-12
  0.0000E+00
  1.3891E-12
  2.7782E-12
  1.0274E-11
  1.1688E-11
  1.3102E-11
  5.1369E-12
  8.4125E-12
  1.1688E-11
  0.0000E+00
  5.1369E-12
  1.0274E-11
  3.8190E-11
  4.3485E-11
  4.8780E-11
  1.9095E-11
  3.1290E-11
  4.3485E-11
  0.0000E+00
  1.9095E-11
  3.8190E-11
  6.4154E-08
  6.4149E-08
  6.4144E-08
  6.4148E-08
  6.4148E-08
  6.4149E-08
  6.4141E-08
  6.4148E-08
  6.4154E-08
  2.5649E-07
  2.5645E-07
  2.5641E-07
  2.5653E-07
  2.5649E-07
  2.5645E-07
  2.5657E-07
  2.5653E-07
  2.5649E-07
  9.6185E-07
  9.6172E-07
  9.6158E-07
  9.6199E-07
  9.6185E-07
  9.6172E-07
  9.6212E-07
  9.6199E-07
  9.6185E-07
  3.6959E-06
  3.6955E-06
  3.6952E-06
  3.6962E-06
  3.6959E-06
  3.6955E-06
  3.6965E-06
  3.6962E-06
  3.6959E-06
  1.3643E-05
  1.3643E-05
  1.3643E-05
  1.3643E-05
  1.3643E-05
  1.3643E-05
  1.3643E-05
  1.3643E-05
  1.3643E-05
  5.0596E-05
  5.0597E-05
  5.0597E-05
  5.0596E-05
  5.0596E-05
  5.0597E-05
  5.0596E-05
  5.0596E-05
  5.0596E-05
  1.8880E-04
  1.8880E-04
  1.8880E-04
  1.8880E-04
  1.8880E-04
  1.8880E-04
  1.8880E-04
  1.8880E-04
  1.8880E-04
  7.0509E-04
  7.0509E-04
  7.0509E-04
  7.0509E-04
  7.0509E-04
  7.0509E-04
  7.0509E-04
  7.0509E-04
  7.0509E-04
  2.6331E-03
  2.6331E-03
  2.6331E-03
  2.6331E-03
  2.6331E-03
  2.6331E-03
  2.6331E-03
  2.6331E-03
  2.6331E-03
  9.8332E-03
  9.8332E-03
  9.8332E-03
  9.8332E-03
  9.8332E-03
  9.8332E-03
  9.8332E-03
  9.8332E-03
  9.8332E-03
  3.6720E-02
  3.6720E-02
  3.6720E-02
  3.6720E-02
  3.6720E-02
  3.6720E-02
  3.6720E-02
  3.6720E-02
  3.6720E-02
  1.3713E-01
  1.3713E-01
  1.3713E-01
  1.3713E-01
  1.3713E-01
  1.3713E-01
  1.3713E-01
  1.3713E-01
  1.3713E-01
  5.1199E-01
  5.1199E-01
  5.1199E-01
  5.1199E-01
  5.1199E-01
  5.1199E-01
  5.1199E-01
  5.1199E-01
  5.1199E-01
  8.0763E-01
  8.0763E-01
  8.0763E-01
  8.0763E-01
  8.0763E-01
  8.0763E-01
  8.0763E-01
  8.0763E-01
  8.0763E-01
   2.1500E-02
  9.4266E-15
  1.2720E-14
  1.6014E-14
  4.7133E-15
  8.6975E-15
  1.2682E-14
  0.0000E+00
  4.6748E-15
  9.3497E-15
  2.8208E-14
  3.8151E-14
  4.8095E-14
  1.4104E-14
  2.6115E-14
  3.8127E-14
  0.0000E+00
  1.4079E-14
  2.8159E-14
  1.7444E-13
  2.0679E-13
  2.3913E-13
  8.7219E-14
  1.4699E-13
  2.0677E-13
  0.0000E+00
  8.7201E-14
  1.7440E-13
  7.4690E-13
  8.5205E-13
  9.5721E-13
  3.7345E-13
  6.1274E-13
  8.5204E-13
  0.0000E+00
  3.7344E-13
  7.4687E-13
  2.8031E-12
  3.1893E-12
  3.5755E-12
  1.4015E-12
  2.2954E-12
  3.1893E-12
  0.0000E+00
  1.4015E-12
  2.8031E-12
  1.0440E-11
  1.1884E-11
  1.3329E-11
  5.2200E-12
  8.5522E-12
  1.1884E-11
  0.0000E+00
  5.2200E-12
  1.0440E-11
  3.8958E-11
  4.4350E-11
  4.9742E-11
  1.9479E-11
  3.1914E-11
  4.4350E-11
  0.0000E+00
  1.9479E-11
  3.8958E-11
  6.4755E-08
  6.4750E-08
  6.4745E-08
  6.4749E-08
  6.4749E-08
  6.4750E-08
  6.4742E-08
  6.4749E-08
  6.4755E-08
  2.5889E-07
  2.5885E-07
  2.5881E-07
  2.5893E-07
  2.5889E-07
  2.5885E-07
  2.5897E-07
  2.5893E-07
  2.5889E-07
  9.7086E-07
  9.7072E-07
  9.7058E-07
  9.7100E-07
  9.7086E-07
  9.7072E-07
  9.7113E-07
  9.7100E-07
  9.7086E-07
  3.7302E-06
  3.7298E-06
  3.7295E-06
  3.7305E-06
  3.7302E-06
  3.7298E-06
  3.7308E-06
  3.7305E-06
  3.7302E-06
  1.3769E-05
  1.3769E-05
  1.3770E-05
  1.3769E-05
  1.3769E-05
  1.3769E-05
  1.3769E-05
  1.3769E-05
  1.3769E-05
  5.1068E-05
  5.1068E-05
  5.1068E-05
  5.1068E-05
  5.1068E-05
  5.1068E-05
  5.1067E-05
  5.1068E-05
  5.1068E-05
  1.9056E-04
  1.9056E-04
  1.9056E-04
  1.9056E-04
  1.9056E-04
  1.9056E-04
  1.9056E-04
  1.9056E-04
  1.9056E-04
  7.1167E-04
  7.1167E-04
  7.1167E-04
  7.1167E-04
  7.1167E-04
  7.1167E-04
  7.1167E-04
  7.1167E-04
  7.1167E-04
  2.6577E-03
  2.6577E-03
  2.6577E-03
  2.6577E-03
  2.6577E-03
  2.6577E-03
  2.6577E-03
  2.6577E-03
  2.6577E-03
  9.9251E-03
  9.9251E-03
  9.9251E-03
  9.9251E-03
  9.9251E-03
  9.9251E-03
  9.9251E-03
  9.9251E-03
  9.9251E-03
  3.7063E-02
  3.7063E-02
  3.7063E-02
  3.7063E-02
  3.7063E-02
  3.7063E-02
  3.7063E-02
  3.7063E-02
  3.7063E-02
  1.3842E-01
  1.3842E-01
  1.3842E-01
  1.3842E-01
  1.3842E-01
  1.3842E-01
  1.3842E-01
  1.3842E-01
  1.3842E-01
  5.1678E-01
  5.1678E-01
  5.1678E-01
  5.1678E-01
  5.1678E-01
  5.1678E-01
  5.1678E-01
  5.1678E-01
  5.1678E-01
  8.1519E-01
  8.1519E-01
  8.1519E-01
  8.1519E-01
  8.1519E-01
  8.1519E-01
  8.1519E-01
  8.1519E-01
  8.1519E-01
   2.1600E-02
  9.6027E-15
  1.2958E-14
  1.6314E-14
  4.8014E-15
  8.8604E-15
  1.2919E-14
  0.0000E+00
  4.7626E-15
  9.5251E-15
  6.3596E-14
  7.0941E-14
  7.8287E-14
  3.1798E-14
  5.1358E-14
  7.0918E-14
  0.0000E+00
  3.1774E-14
  6.3549E-14
  2.3805E-13
  2.6374E-13
  2.8943E-13
  1.1902E-13
  1.9137E-13
  2.6372E-13
  0.0000E+00
  1.1901E-13
  2.3802E-13
  7.8054E-13
  8.8368E-13
  9.8683E-13
  3.9027E-13
  6.3697E-13
  8.8367E-13
  0.0000E+00
  3.9026E-13
  7.8052E-13
  2.8284E-12
  3.2241E-12
  3.6199E-12
  1.4142E-12
  2.3192E-12
  3.2241E-12
  0.0000E+00
  1.4142E-12
  2.8284E-12
  1.0608E-11
  1.2083E-11
  1.3558E-11
  5.3038E-12
  8.6933E-12
  1.2083E-11
  0.0000E+00
  5.3038E-12
  1.0608E-11
  3.9657E-11
  4.5153E-11
  5.0649E-11
  1.9829E-11
  3.2491E-11
  4.5153E-11
  0.0000E+00
  1.9829E-11
  3.9657E-11
  6.5359E-08
  6.5354E-08
  6.5349E-08
  6.5352E-08
  6.5353E-08
  6.5354E-08
  6.5346E-08
  6.5352E-08
  6.5359E-08
  2.6130E-07
  2.6126E-07
  2.6122E-07
  2.6134E-07
  2.6130E-07
  2.6126E-07
  2.6138E-07
  2.6134E-07
  2.6130E-07
  9.7991E-07
  9.7977E-07
  9.7963E-07
  9.8005E-07
  9.7991E-07
  9.7977E-07
  9.8019E-07
  9.8005E-07
  9.7991E-07
  3.7646E-06
  3.7643E-06
  3.7640E-06
  3.7649E-06
  3.7646E-06
  3.7643E-06
  3.7653E-06
  3.7649E-06
  3.7646E-06
  1.3897E-05
  1.3897E-05
  1.3897E-05
  1.3897E-05
  1.3897E-05
  1.3897E-05
  1.3897E-05
  1.3897E-05
  1.3897E-05
  5.1541E-05
  5.1542E-05
  5.1542E-05
  5.1541E-05
  5.1541E-05
  5.1542E-05
  5.1541E-05
  5.1541E-05
  5.1541E-05
  1.9233E-04
  1.9233E-04
  1.9233E-04
  1.9233E-04
  1.9233E-04
  1.9233E-04
  1.9233E-04
  1.9233E-04
  1.9233E-04
  7.1828E-04
  7.1828E-04
  7.1828E-04
  7.1828E-04
  7.1828E-04
  7.1828E-04
  7.1828E-04
  7.1828E-04
  7.1828E-04
  2.6824E-03
  2.6824E-03
  2.6824E-03
  2.6824E-03
  2.6824E-03
  2.6824E-03
  2.6824E-03
  2.6824E-03
  2.6824E-03
  1.0017E-02
  1.0017E-02
  1.0017E-02
  1.0017E-02
  1.0017E-02
  1.0017E-02
  1.0017E-02
  1.0017E-02
  1.0017E-02
  3.7408E-02
  3.7408E-02
  3.7408E-02
  3.7408E-02
  3.7408E-02
  3.7408E-02
  3.7408E-02
  3.7408E-02
  3.7408E-02
  1.3971E-01
  1.3971E-01
  1.3971E-01
  1.3971E-01
  1.3971E-01
  1.3971E-01
  1.3971E-01
  1.3971E-01
  1.3971E-01
  5.2159E-01
  5.2159E-01
  5.2159E-01
  5.2159E-01
  5.2159E-01
  5.2159E-01
  5.2159E-01
  5.2159E-01
  5.2159E-01
  8.2279E-01
  8.2279E-01
  8.2279E-01
  8.2279E-01
  8.2279E-01
  8.2279E-01
  8.2279E-01
  8.2279E-01
  8.2279E-01
   2.1700E-02
  9.7814E-15
  1.3200E-14
  1.6618E-14
  4.8907E-15
  9.0256E-15
  1.3160E-14
  0.0000E+00
  4.8515E-15
  9.7030E-15
  6.4016E-14
  7.1520E-14
  7.9024E-14
  3.2008E-14
  5.1752E-14
  7.1496E-14
  0.0000E+00
  3.1984E-14
  6.3968E-14
  2.3976E-13
  2.6611E-13
  2.9246E-13
  1.1988E-13
  1.9299E-13
  2.6609E-13
  0.0000E+00
  1.1986E-13
  2.3972E-13
  7.8735E-13
  8.9307E-13
  9.9880E-13
  3.9367E-13
  6.4337E-13
  8.9306E-13
  0.0000E+00
  3.9366E-13
  7.8732E-13
  2.8541E-12
  3.2596E-12
  3.6651E-12
  1.4271E-12
  2.3433E-12
  3.2596E-12
  0.0000E+00
  1.4271E-12
  2.8542E-12
  1.0740E-11
  1.2249E-11
  1.3758E-11
  5.3701E-12
  8.8095E-12
  1.2249E-11
  0.0000E+00
  5.3701E-12
  1.0740E-11
  4.0298E-11
  4.5906E-11
  5.1515E-11
  2.0149E-11
  3.3028E-11
  4.5906E-11
  0.0000E+00
  2.0149E-11
  4.0298E-11
  6.5965E-08
  6.5960E-08
  6.5955E-08
  6.5959E-08
  6.5960E-08
  6.5960E-08
  6.5952E-08
  6.5959E-08
  6.5965E-08
  2.6372E-07
  2.6368E-07
  2.6364E-07
  2.6377E-07
  2.6372E-07
  2.6368E-07
  2.6381E-07
  2.6377E-07
  2.6372E-07
  9.8900E-07
  9.8886E-07
  9.8871E-07
  9.8914E-07
  9.8900E-07
  9.8886E-07
  9.8929E-07
  9.8914E-07
  9.8900E-07
  3.7992E-06
  3.7989E-06
  3.7986E-06
  3.7996E-06
  3.7992E-06
  3.7989E-06
  3.7999E-06
  3.7996E-06
  3.7992E-06
  1.4025E-05
  1.4025E-05
  1.4025E-05
  1.4025E-05
  1.4025E-05
  1.4025E-05
  1.4024E-05
  1.4025E-05
  1.4025E-05
  5.2017E-05
  5.2017E-05
  5.2018E-05
  5.2017E-05
  5.2017E-05
  5.2017E-05
  5.2017E-05
  5.2017E-05
  5.2017E-05
  1.9410E-04
  1.9410E-04
  1.9411E-04
  1.9410E-04
  1.9410E-04
  1.9410E-04
  1.9410E-04
  1.9410E-04
  1.9410E-04
  7.2492E-04
  7.2492E-04
  7.2492E-04
  7.2492E-04
  7.2492E-04
  7.2492E-04
  7.2492E-04
  7.2492E-04
  7.2492E-04
  2.7073E-03
  2.7073E-03
  2.7073E-03
  2.7073E-03
  2.7073E-03
  2.7073E-03
  2.7073E-03
  2.7073E-03
  2.7073E-03
  1.0110E-02
  1.0110E-02
  1.0110E-02
  1.0110E-02
  1.0110E-02
  1.0110E-02
  1.0110E-02
  1.0110E-02
  1.0110E-02
  3.7755E-02
  3.7755E-02
  3.7755E-02
  3.7755E-02
  3.7755E-02
  3.7755E-02
  3.7755E-02
  3.7755E-02
  3.7755E-02
  1.4100E-01
  1.4100E-01
  1.4100E-01
  1.4100E-01
  1.4100E-01
  1.4100E-01
  1.4100E-01
  1.4100E-01
  1.4100E-01
  5.2643E-01
  5.2643E-01
  5.2643E-01
  5.2643E-01
  5.2643E-01
  5.2643E-01
  5.2643E-01
  5.2643E-01
  5.2643E-01
  8.3042E-01
  8.3042E-01
  8.3042E-01
  8.3042E-01
  8.3042E-01
  8.3042E-01
  8.3042E-01
  8.3042E-01
  8.3042E-01
   2.1800E-02
  9.9625E-15
  1.3444E-14
  1.6926E-14
  4.9812E-15
  9.1930E-15
  1.3405E-14
  0.0000E+00
  4.9417E-15
  9.8834E-15
  6.4443E-14
  7.2109E-14
  7.9774E-14
  3.2221E-14
  5.2153E-14
  7.2085E-14
  0.0000E+00
  3.2197E-14
  6.4395E-14
  2.4150E-13
  2.6852E-13
  2.9555E-13
  1.2075E-13
  1.9463E-13
  2.6851E-13
  0.0000E+00
  1.2073E-13
  2.4147E-13
  7.9428E-13
  9.0263E-13
  1.0110E-12
  3.9714E-13
  6.4988E-13
  9.0262E-13
  0.0000E+00
  3.9713E-13
  7.9426E-13
  2.9534E-12
  3.3636E-12
  3.7739E-12
  1.4767E-12
  2.4202E-12
  3.3636E-12
  0.0000E+00
  1.4767E-12
  2.9534E-12
  1.1038E-11
  1.2564E-11
  1.4090E-11
  5.5188E-12
  9.0414E-12
  1.2564E-11
  0.0000E+00
  5.5189E-12
  1.1038E-11
  4.1135E-11
  4.6836E-11
  5.2538E-11
  2.0567E-11
  3.3702E-11
  4.6836E-11
  0.0000E+00
  2.0567E-11
  4.1135E-11
  6.6575E-08
  6.6570E-08
  6.6565E-08
  6.6568E-08
  6.6569E-08
  6.6570E-08
  6.6562E-08
  6.6568E-08
  6.6575E-08
  2.6616E-07
  2.6612E-07
  2.6607E-07
  2.6620E-07
  2.6616E-07
  2.6612E-07
  2.6625E-07
  2.6620E-07
  2.6616E-07
  9.9813E-07
  9.9799E-07
  9.9784E-07
  9.9828E-07
  9.9813E-07
  9.9799E-07
  9.9842E-07
  9.9828E-07
  9.9813E-07
  3.8340E-06
  3.8337E-06
  3.8334E-06
  3.8343E-06
  3.8340E-06
  3.8337E-06
  3.8347E-06
  3.8343E-06
  3.8340E-06
  1.4153E-05
  1.4153E-05
  1.4153E-05
  1.4153E-05
  1.4153E-05
  1.4153E-05
  1.4153E-05
  1.4153E-05
  1.4153E-05
  5.2495E-05
  5.2495E-05
  5.2496E-05
  5.2495E-05
  5.2495E-05
  5.2495E-05
  5.2495E-05
  5.2495E-05
  5.2495E-05
  1.9589E-04
  1.9589E-04
  1.9589E-04
  1.9589E-04
  1.9589E-04
  1.9589E-04
  1.9589E-04
  1.9589E-04
  1.9589E-04
  7.3159E-04
  7.3159E-04
  7.3159E-04
  7.3159E-04
  7.3159E-04
  7.3159E-04
  7.3159E-04
  7.3159E-04
  7.3159E-04
  2.7322E-03
  2.7322E-03
  2.7322E-03
  2.7322E-03
  2.7322E-03
  2.7322E-03
  2.7322E-03
  2.7322E-03
  2.7322E-03
  1.0203E-02
  1.0203E-02
  1.0203E-02
  1.0203E-02
  1.0203E-02
  1.0203E-02
  1.0203E-02
  1.0203E-02
  1.0203E-02
  3.8103E-02
  3.8103E-02
  3.8103E-02
  3.8103E-02
  3.8103E-02
  3.8103E-02
  3.8103E-02
  3.8103E-02
  3.8103E-02
  1.4230E-01
  1.4230E-01
  1.4230E-01
  1.4230E-01
  1.4230E-01
  1.4230E-01
  1.4230E-01
  1.4230E-01
  1.4230E-01
  5.3129E-01
  5.3129E-01
  5.3129E-01
  5.3129E-01
  5.3129E-01
  5.3129E-01
  5.3129E-01
  5.3129E-01
  5.3129E-01
  8.3809E-01
  8.3809E-01
  8.3809E-01
  8.3809E-01
  8.3809E-01
  8.3809E-01
  8.3809E-01
  8.3809E-01
  8.3809E-01
   2.1900E-02
  1.0146E-14
  1.3693E-14
  1.7239E-14
  5.0730E-15
  9.3628E-15
  1.3653E-14
  0.0000E+00
  5.0331E-15
  1.0066E-14
  6.4878E-14
  7.2708E-14
  8.0538E-14
  3.2439E-14
  5.2561E-14
  7.2684E-14
  0.0000E+00
  3.2415E-14
  6.4829E-14
  2.4327E-13
  2.7098E-13
  2.9869E-13
  1.2164E-13
  1.9630E-13
  2.7096E-13
  0.0000E+00
  1.2162E-13
  2.4324E-13
  8.0134E-13
  9.1236E-13
  1.0234E-12
  4.0067E-13
  6.5651E-13
  9.1235E-13
  0.0000E+00
  4.0066E-13
  8.0132E-13
  2.9798E-12
  3.4000E-12
  3.8202E-12
  1.4899E-12
  2.4449E-12
  3.4000E-12
  0.0000E+00
  1.4899E-12
  2.9798E-12
  1.1209E-11
  1.2768E-11
  1.4326E-11
  5.6046E-12
  9.1861E-12
  1.2768E-11
  0.0000E+00
  5.6046E-12
  1.1209E-11
  4.1849E-11
  4.7660E-11
  5.3471E-11
  2.0924E-11
  3.4292E-11
  4.7660E-11
  0.0000E+00
  2.0924E-11
  4.1849E-11
  6.7187E-08
  6.7182E-08
  6.7177E-08
  6.7180E-08
  6.7181E-08
  6.7182E-08
  6.7174E-08
  6.7180E-08
  6.7187E-08
  2.6861E-07
  2.6856E-07
  2.6852E-07
  2.6865E-07
  2.6861E-07
  2.6856E-07
  2.6869E-07
  2.6865E-07
  2.6861E-07
  1.0073E-06
  1.0072E-06
  1.0070E-06
  1.0075E-06
  1.0073E-06
  1.0072E-06
  1.0076E-06
  1.0075E-06
  1.0073E-06
  3.8690E-06
  3.8686E-06
  3.8683E-06
  3.8693E-06
  3.8689E-06
  3.8686E-06
  3.8696E-06
  3.8693E-06
  3.8690E-06
  1.4282E-05
  1.4282E-05
  1.4282E-05
  1.4282E-05
  1.4282E-05
  1.4282E-05
  1.4282E-05
  1.4282E-05
  1.4282E-05
  5.2975E-05
  5.2975E-05
  5.2976E-05
  5.2975E-05
  5.2975E-05
  5.2975E-05
  5.2975E-05
  5.2975E-05
  5.2975E-05
  1.9768E-04
  1.9768E-04
  1.9768E-04
  1.9768E-04
  1.9768E-04
  1.9768E-04
  1.9768E-04
  1.9768E-04
  1.9768E-04
  7.3829E-04
  7.3829E-04
  7.3829E-04
  7.3829E-04
  7.3829E-04
  7.3829E-04
  7.3829E-04
  7.3829E-04
  7.3829E-04
  2.7572E-03
  2.7572E-03
  2.7572E-03
  2.7572E-03
  2.7572E-03
  2.7572E-03
  2.7572E-03
  2.7572E-03
  2.7572E-03
  1.0297E-02
  1.0297E-02
  1.0297E-02
  1.0297E-02
  1.0297E-02
  1.0297E-02
  1.0297E-02
  1.0297E-02
  1.0297E-02
  3.8453E-02
  3.8453E-02
  3.8453E-02
  3.8453E-02
  3.8453E-02
  3.8453E-02
  3.8453E-02
  3.8453E-02
  3.8453E-02
  1.4361E-01
  1.4361E-01
  1.4361E-01
  1.4361E-01
  1.4361E-01
  1.4361E-01
  1.4361E-01
  1.4361E-01
  1.4361E-01
  5.3617E-01
  5.3617E-01
  5.3617E-01
  5.3617E-01
  5.3617E-01
  5.3617E-01
  5.3617E-01
  5.3617E-01
  5.3617E-01
  8.4579E-01
  8.4579E-01
  8.4579E-01
  8.4579E-01
  8.4579E-01
  8.4579E-01
  8.4579E-01
  8.4579E-01
  8.4579E-01
   2.2000E-02
  1.0332E-14
  1.3944E-14
  1.7556E-14
  5.1661E-15
  9.5350E-15
  1.3904E-14
  0.0000E+00
  5.1259E-15
  1.0252E-14
  6.5320E-14
  7.3317E-14
  8.1314E-14
  3.2660E-14
  5.2976E-14
  7.3293E-14
  0.0000E+00
  3.2636E-14
  6.5271E-14
  2.4508E-13
  2.7349E-13
  3.0189E-13
  1.2254E-13
  1.9801E-13
  2.7347E-13
  0.0000E+00
  1.2253E-13
  2.4505E-13
  8.4502E-13
  9.5621E-13
  1.0674E-12
  4.2251E-13
  6.8936E-13
  9.5620E-13
  0.0000E+00
  4.2250E-13
  8.4500E-13
  3.0701E-12
  3.4934E-12
  3.9166E-12
  1.5351E-12
  2.5142E-12
  3.4934E-12
  0.0000E+00
  1.5351E-12
  3.0701E-12
  1.1409E-11
  1.2996E-11
  1.4582E-11
  5.7046E-12
  9.3502E-12
  1.2996E-11
  0.0000E+00
  5.7047E-12
  1.1409E-11
  4.2641E-11
  4.8559E-11
  5.4476E-11
  2.1321E-11
  3.4940E-11
  4.8559E-11
  0.0000E+00
  2.1321E-11
  4.2641E-11
  6.7802E-08
  6.7797E-08
  6.7792E-08
  6.7795E-08
  6.7796E-08
  6.7797E-08
  6.7789E-08
  6.7795E-08
  6.7802E-08
  2.7106E-07
  2.7102E-07
  2.7098E-07
  2.7111E-07
  2.7106E-07
  2.7102E-07
  2.7115E-07
  2.7111E-07
  2.7106E-07
  1.0165E-06
  1.0164E-06
  1.0162E-06
  1.0167E-06
  1.0165E-06
  1.0164E-06
  1.0168E-06
  1.0167E-06
  1.0165E-06
  3.9040E-06
  3.9037E-06
  3.9034E-06
  3.9044E-06
  3.9040E-06
  3.9037E-06
  3.9047E-06
  3.9044E-06
  3.9040E-06
  1.4412E-05
  1.4412E-05
  1.4412E-05
  1.4412E-05
  1.4412E-05
  1.4412E-05
  1.4412E-05
  1.4412E-05
  1.4412E-05
  5.3457E-05
  5.3458E-05
  5.3458E-05
  5.3457E-05
  5.3457E-05
  5.3458E-05
  5.3457E-05
  5.3457E-05
  5.3457E-05
  1.9949E-04
  1.9949E-04
  1.9949E-04
  1.9949E-04
  1.9949E-04
  1.9949E-04
  1.9948E-04
  1.9949E-04
  1.9949E-04
  7.4503E-04
  7.4503E-04
  7.4503E-04
  7.4503E-04
  7.4503E-04
  7.4503E-04
  7.4503E-04
  7.4503E-04
  7.4503E-04
  2.7824E-03
  2.7824E-03
  2.7824E-03
  2.7824E-03
  2.7824E-03
  2.7824E-03
  2.7824E-03
  2.7824E-03
  2.7824E-03
  1.0391E-02
  1.0391E-02
  1.0391E-02
  1.0391E-02
  1.0391E-02
  1.0391E-02
  1.0391E-02
  1.0391E-02
  1.0391E-02
  3.8804E-02
  3.8804E-02
  3.8804E-02
  3.8804E-02
  3.8804E-02
  3.8804E-02
  3.8804E-02
  3.8804E-02
  3.8804E-02
  1.4492E-01
  1.4492E-01
  1.4492E-01
  1.4492E-01
  1.4492E-01
  1.4492E-01
  1.4492E-01
  1.4492E-01
  1.4492E-01
  5.4108E-01
  5.4108E-01
  5.4108E-01
  5.4108E-01
  5.4108E-01
  5.4108E-01
  5.4108E-01
  5.4108E-01
  5.4108E-01
  8.5352E-01
  8.5352E-01
  8.5352E-01
  8.5352E-01
  8.5352E-01
  8.5352E-01
  8.5352E-01
  8.5352E-01
  8.5352E-01
   2.2100E-02
  1.0521E-14
  1.4199E-14
  1.7877E-14
  5.2604E-15
  9.7095E-15
  1.4158E-14
  0.0000E+00
  5.2198E-15
  1.0440E-14
  6.5770E-14
  7.3937E-14
  8.2104E-14
  3.2885E-14
  5.3399E-14
  7.3912E-14
  0.0000E+00
  3.2861E-14
  6.5721E-14
  2.4693E-13
  2.7604E-13
  3.0514E-13
  1.2346E-13
  1.9974E-13
  2.7602E-13
  0.0000E+00
  1.2345E-13
  2.4689E-13
  8.5219E-13
  9.6610E-13
  1.0800E-12
  4.2610E-13
  6.9609E-13
  9.6609E-13
  0.0000E+00
  4.2608E-13
  8.5217E-13
  3.0972E-12
  3.5307E-12
  3.9642E-12
  1.5486E-12
  2.5397E-12
  3.5307E-12
  0.0000E+00
  1.5486E-12
  3.0973E-12
  1.1584E-11
  1.3203E-11
  1.4823E-11
  5.7919E-12
  9.4976E-12
  1.3203E-11
  0.0000E+00
  5.7919E-12
  1.1584E-11
  4.3439E-11
  4.9458E-11
  5.5477E-11
  2.1720E-11
  3.5589E-11
  4.9458E-11
  0.0000E+00
  2.1720E-11
  4.3439E-11
  6.8420E-08
  6.8415E-08
  6.8409E-08
  6.8413E-08
  6.8414E-08
  6.8415E-08
  6.8406E-08
  6.8413E-08
  6.8420E-08
  2.7353E-07
  2.7349E-07
  2.7344E-07
  2.7358E-07
  2.7353E-07
  2.7349E-07
  2.7362E-07
  2.7358E-07
  2.7353E-07
  1.0258E-06
  1.0256E-06
  1.0255E-06
  1.0259E-06
  1.0258E-06
  1.0256E-06
  1.0261E-06
  1.0259E-06
  1.0258E-06
  3.9393E-06
  3.9389E-06
  3.9386E-06
  3.9396E-06
  3.9393E-06
  3.9389E-06
  3.9399E-06
  3.9396E-06
  3.9393E-06
  1.4542E-05
  1.4542E-05
  1.4542E-05
  1.4542E-05
  1.4542E-05
  1.4542E-05
  1.4542E-05
  1.4542E-05
  1.4542E-05
  5.3942E-05
  5.3942E-05
  5.3942E-05
  5.3942E-05
  5.3942E-05
  5.3942E-05
  5.3941E-05
  5.3942E-05
  5.3942E-05
  2.0129E-04
  2.0129E-04
  2.0129E-04
  2.0129E-04
  2.0129E-04
  2.0129E-04
  2.0129E-04
  2.0129E-04
  2.0129E-04
  7.5179E-04
  7.5179E-04
  7.5179E-04
  7.5179E-04
  7.5179E-04
  7.5179E-04
  7.5179E-04
  7.5179E-04
  7.5179E-04
  2.8077E-03
  2.8077E-03
  2.8077E-03
  2.8077E-03
  2.8077E-03
  2.8077E-03
  2.8077E-03
  2.8077E-03
  2.8077E-03
  1.0485E-02
  1.0485E-02
  1.0485E-02
  1.0485E-02
  1.0485E-02
  1.0485E-02
  1.0485E-02
  1.0485E-02
  1.0485E-02
  3.9157E-02
  3.9157E-02
  3.9157E-02
  3.9157E-02
  3.9157E-02
  3.9157E-02
  3.9157E-02
  3.9157E-02
  3.9157E-02
  1.4624E-01
  1.4624E-01
  1.4624E-01
  1.4624E-01
  1.4624E-01
  1.4624E-01
  1.4624E-01
  1.4624E-01
  1.4624E-01
  5.4600E-01
  5.4600E-01
  5.4600E-01
  5.4600E-01
  5.4600E-01
  5.4600E-01
  5.4600E-01
  5.4600E-01
  5.4600E-01
  8.6129E-01
  8.6129E-01
  8.6129E-01
  8.6129E-01
  8.6129E-01
  8.6129E-01
  8.6129E-01
  8.6129E-01
  8.6129E-01
   2.2200E-02
  1.0712E-14
  1.4458E-14
  1.8203E-14
  5.3561E-15
  9.8863E-15
  1.4417E-14
  0.0000E+00
  5.3151E-15
  1.0630E-14
  6.6228E-14
  7.4568E-14
  8.2907E-14
  3.3114E-14
  5.3828E-14
  7.4543E-14
  0.0000E+00
  3.3089E-14
  6.6178E-14
  2.4881E-13
  2.7863E-13
  3.0846E-13
  1.2440E-13
  2.0151E-13
  2.7862E-13
  0.0000E+00
  1.2439E-13
  2.4877E-13
  8.5949E-13
  9.7616E-13
  1.0928E-12
  4.2975E-13
  7.0295E-13
  9.7615E-13
  0.0000E+00
  4.2973E-13
  8.5947E-13
  3.1978E-12
  3.6366E-12
  4.0754E-12
  1.5989E-12
  2.6178E-12
  3.6366E-12
  0.0000E+00
  1.5989E-12
  3.1978E-12
  1.1887E-11
  1.3526E-11
  1.5165E-11
  5.9434E-12
  9.7346E-12
  1.3526E-11
  0.0000E+00
  5.9434E-12
  1.1887E-11
  4.4223E-11
  5.0355E-11
  5.6487E-11
  2.2111E-11
  3.6233E-11
  5.0355E-11
  0.0000E+00
  2.2111E-11
  4.4223E-11
  6.9041E-08
  6.9035E-08
  6.9030E-08
  6.9034E-08
  6.9035E-08
  6.9035E-08
  6.9027E-08
  6.9034E-08
  6.9041E-08
  2.7601E-07
  2.7597E-07
  2.7592E-07
  2.7606E-07
  2.7601E-07
  2.7597E-07
  2.7611E-07
  2.7606E-07
  2.7601E-07
  1.0351E-06
  1.0349E-06
  1.0348E-06
  1.0352E-06
  1.0351E-06
  1.0349E-06
  1.0354E-06
  1.0352E-06
  1.0351E-06
  3.9747E-06
  3.9743E-06
  3.9740E-06
  3.9750E-06
  3.9747E-06
  3.9743E-06
  3.9753E-06
  3.9750E-06
  3.9747E-06
  1.4673E-05
  1.4673E-05
  1.4673E-05
  1.4673E-05
  1.4673E-05
  1.4673E-05
  1.4673E-05
  1.4673E-05
  1.4673E-05
  5.4428E-05
  5.4428E-05
  5.4429E-05
  5.4428E-05
  5.4428E-05
  5.4428E-05
  5.4428E-05
  5.4428E-05
  5.4428E-05
  2.0311E-04
  2.0311E-04
  2.0311E-04
  2.0311E-04
  2.0311E-04
  2.0311E-04
  2.0311E-04
  2.0311E-04
  2.0311E-04
  7.5858E-04
  7.5858E-04
  7.5858E-04
  7.5858E-04
  7.5858E-04
  7.5858E-04
  7.5858E-04
  7.5858E-04
  7.5858E-04
  2.8330E-03
  2.8330E-03
  2.8330E-03
  2.8330E-03
  2.8330E-03
  2.8330E-03
  2.8330E-03
  2.8330E-03
  2.8330E-03
  1.0580E-02
  1.0580E-02
  1.0580E-02
  1.0580E-02
  1.0580E-02
  1.0580E-02
  1.0580E-02
  1.0580E-02
  1.0580E-02
  3.9511E-02
  3.9511E-02
  3.9511E-02
  3.9511E-02
  3.9511E-02
  3.9511E-02
  3.9511E-02
  3.9511E-02
  3.9511E-02
  1.4757E-01
  1.4757E-01
  1.4757E-01
  1.4757E-01
  1.4757E-01
  1.4757E-01
  1.4757E-01
  1.4757E-01
  1.4757E-01
  5.5095E-01
  5.5095E-01
  5.5095E-01
  5.5095E-01
  5.5095E-01
  5.5095E-01
  5.5095E-01
  5.5095E-01
  5.5095E-01
  8.6910E-01
  8.6910E-01
  8.6910E-01
  8.6910E-01
  8.6910E-01
  8.6910E-01
  8.6910E-01
  8.6910E-01
  8.6910E-01
   2.2300E-02
  1.0906E-14
  1.4720E-14
  1.8533E-14
  5.4530E-15
  1.0066E-14
  1.4678E-14
  0.0000E+00
  5.4116E-15
  1.0823E-14
  6.6694E-14
  7.5209E-14
  8.3724E-14
  3.3347E-14
  5.4265E-14
  7.5184E-14
  0.0000E+00
  3.3322E-14
  6.6644E-14
  2.5072E-13
  2.8128E-13
  3.1184E-13
  1.2536E-13
  2.0331E-13
  2.8126E-13
  0.0000E+00
  1.2534E-13
  2.5069E-13
  8.6692E-13
  9.8640E-13
  1.1059E-12
  4.3346E-13
  7.0993E-13
  9.8639E-13
  0.0000E+00
  4.3345E-13
  8.6690E-13
  3.2256E-12
  3.6749E-12
  4.1241E-12
  1.6128E-12
  2.6438E-12
  3.6749E-12
  0.0000E+00
  1.6128E-12
  3.2256E-12
  1.2064E-11
  1.3737E-11
  1.5410E-11
  6.0319E-12
  9.8844E-12
  1.3737E-11
  0.0000E+00
  6.0319E-12
  1.2064E-11
  4.5031E-11
  5.1275E-11
  5.7519E-11
  2.2515E-11
  3.6895E-11
  5.1275E-11
  0.0000E+00
  2.2515E-11
  4.5031E-11
  6.9664E-08
  6.9659E-08
  6.9653E-08
  6.9657E-08
  6.9658E-08
  6.9659E-08
  6.9650E-08
  6.9657E-08
  6.9664E-08
  2.7851E-07
  2.7846E-07
  2.7841E-07
  2.7855E-07
  2.7851E-07
  2.7846E-07
  2.7860E-07
  2.7855E-07
  2.7851E-07
  1.0444E-06
  1.0443E-06
  1.0441E-06
  1.0446E-06
  1.0444E-06
  1.0443E-06
  1.0447E-06
  1.0446E-06
  1.0444E-06
  4.0102E-06
  4.0099E-06
  4.0096E-06
  4.0106E-06
  4.0102E-06
  4.0099E-06
  4.0109E-06
  4.0106E-06
  4.0102E-06
  1.4804E-05
  1.4804E-05
  1.4804E-05
  1.4804E-05
  1.4804E-05
  1.4804E-05
  1.4804E-05
  1.4804E-05
  1.4804E-05
  5.4917E-05
  5.4917E-05
  5.4917E-05
  5.4917E-05
  5.4917E-05
  5.4917E-05
  5.4916E-05
  5.4917E-05
  5.4917E-05
  2.0494E-04
  2.0494E-04
  2.0494E-04
  2.0494E-04
  2.0494E-04
  2.0494E-04
  2.0494E-04
  2.0494E-04
  2.0494E-04
  7.6540E-04
  7.6540E-04
  7.6540E-04
  7.6540E-04
  7.6540E-04
  7.6540E-04
  7.6540E-04
  7.6540E-04
  7.6540E-04
  2.8585E-03
  2.8585E-03
  2.8585E-03
  2.8585E-03
  2.8585E-03
  2.8585E-03
  2.8585E-03
  2.8585E-03
  2.8585E-03
  1.0675E-02
  1.0675E-02
  1.0675E-02
  1.0675E-02
  1.0675E-02
  1.0675E-02
  1.0675E-02
  1.0675E-02
  1.0675E-02
  3.9867E-02
  3.9867E-02
  3.9867E-02
  3.9867E-02
  3.9867E-02
  3.9867E-02
  3.9867E-02
  3.9867E-02
  3.9867E-02
  1.4890E-01
  1.4890E-01
  1.4890E-01
  1.4890E-01
  1.4890E-01
  1.4890E-01
  1.4890E-01
  1.4890E-01
  1.4890E-01
  5.5592E-01
  5.5592E-01
  5.5592E-01
  5.5592E-01
  5.5592E-01
  5.5592E-01
  5.5592E-01
  5.5592E-01
  5.5592E-01
  8.7694E-01
  8.7694E-01
  8.7694E-01
  8.7694E-01
  8.7694E-01
  8.7694E-01
  8.7694E-01
  8.7694E-01
  8.7694E-01
   2.2400E-02
  1.1102E-14
  1.4985E-14
  1.8868E-14
  5.5512E-15
  1.0247E-14
  1.4943E-14
  0.0000E+00
  5.5095E-15
  1.1019E-14
  6.7168E-14
  7.5861E-14
  8.4555E-14
  3.3584E-14
  5.4710E-14
  7.5836E-14
  0.0000E+00
  3.3558E-14
  6.7117E-14
  2.5267E-13
  2.8397E-13
  3.1527E-13
  1.2633E-13
  2.0514E-13
  2.8395E-13
  0.0000E+00
  1.2632E-13
  2.5263E-13
  8.7449E-13
  9.9682E-13
  1.1192E-12
  4.3724E-13
  7.1703E-13
  9.9681E-13
  0.0000E+00
  4.3723E-13
  8.7446E-13
  3.2539E-12
  3.7138E-12
  4.1737E-12
  1.6269E-12
  2.6704E-12
  3.7138E-12
  0.0000E+00
  1.6270E-12
  3.2539E-12
  1.2242E-11
  1.3950E-11
  1.5658E-11
  6.1212E-12
  1.0036E-11
  1.3950E-11
  0.0000E+00
  6.1212E-12
  1.2242E-11
  4.5844E-11
  5.2202E-11
  5.8560E-11
  2.2922E-11
  3.7562E-11
  5.2202E-11
  0.0000E+00
  2.2922E-11
  4.5844E-11
  7.0291E-08
  7.0285E-08
  7.0279E-08
  7.0283E-08
  7.0284E-08
  7.0285E-08
  7.0276E-08
  7.0283E-08
  7.0291E-08
  2.8101E-07
  2.8096E-07
  2.8091E-07
  2.8106E-07
  2.8101E-07
  2.8096E-07
  2.8110E-07
  2.8106E-07
  2.8101E-07
  1.0538E-06
  1.0537E-06
  1.0535E-06
  1.0540E-06
  1.0538E-06
  1.0537E-06
  1.0541E-06
  1.0540E-06
  1.0538E-06
  4.0460E-06
  4.0456E-06
  4.0453E-06
  4.0463E-06
  4.0460E-06
  4.0456E-06
  4.0466E-06
  4.0463E-06
  4.0460E-06
  1.4936E-05
  1.4936E-05
  1.4936E-05
  1.4936E-05
  1.4936E-05
  1.4936E-05
  1.4936E-05
  1.4936E-05
  1.4936E-05
  5.5408E-05
  5.5408E-05
  5.5408E-05
  5.5407E-05
  5.5408E-05
  5.5408E-05
  5.5407E-05
  5.5407E-05
  5.5408E-05
  2.0677E-04
  2.0677E-04
  2.0677E-04
  2.0677E-04
  2.0677E-04
  2.0677E-04
  2.0677E-04
  2.0677E-04
  2.0677E-04
  7.7226E-04
  7.7226E-04
  7.7226E-04
  7.7226E-04
  7.7226E-04
  7.7226E-04
  7.7226E-04
  7.7226E-04
  7.7226E-04
  2.8841E-03
  2.8841E-03
  2.8841E-03
  2.8841E-03
  2.8841E-03
  2.8841E-03
  2.8841E-03
  2.8841E-03
  2.8841E-03
  1.0771E-02
  1.0771E-02
  1.0771E-02
  1.0771E-02
  1.0771E-02
  1.0771E-02
  1.0771E-02
  1.0771E-02
  1.0771E-02
  4.0225E-02
  4.0225E-02
  4.0225E-02
  4.0225E-02
  4.0225E-02
  4.0225E-02
  4.0225E-02
  4.0225E-02
  4.0225E-02
  1.5023E-01
  1.5023E-01
  1.5023E-01
  1.5023E-01
  1.5023E-01
  1.5023E-01
  1.5023E-01
  1.5023E-01
  1.5023E-01
  5.6092E-01
  5.6092E-01
  5.6092E-01
  5.6092E-01
  5.6092E-01
  5.6092E-01
  5.6092E-01
  5.6092E-01
  5.6092E-01
  8.8482E-01
  8.8482E-01
  8.8482E-01
  8.8482E-01
  8.8482E-01
  8.8482E-01
  8.8482E-01
  8.8482E-01
  8.8482E-01
   2.2500E-02
  1.1302E-14
  1.5254E-14
  1.9207E-14
  5.6508E-15
  1.0431E-14
  1.5212E-14
  0.0000E+00
  5.6087E-15
  1.1217E-14
  6.7649E-14
  7.6525E-14
  8.5400E-14
  3.3825E-14
  5.5162E-14
  7.6499E-14
  0.0000E+00
  3.3799E-14
  6.7598E-14
  2.5465E-13
  2.8671E-13
  3.1877E-13
  1.2733E-13
  2.0701E-13
  2.8669E-13
  0.0000E+00
  1.2731E-13
  2.5462E-13
  8.8218E-13
  1.0074E-12
  1.1327E-12
  4.4109E-13
  7.2425E-13
  1.0074E-12
  0.0000E+00
  4.4108E-13
  8.8215E-13
  3.3559E-12
  3.8216E-12
  4.2873E-12
  1.6779E-12
  2.7498E-12
  3.8216E-12
  0.0000E+00
  1.6779E-12
  3.3559E-12
  1.2550E-11
  1.4279E-11
  1.6008E-11
  6.2749E-12
  1.0277E-11
  1.4279E-11
  0.0000E+00
  6.2749E-12
  1.2550E-11
  4.6644E-11
  5.3114E-11
  5.9584E-11
  2.3322E-11
  3.8218E-11
  5.3114E-11
  0.0000E+00
  2.3322E-11
  4.6644E-11
  7.0920E-08
  7.0914E-08
  7.0908E-08
  7.0912E-08
  7.0913E-08
  7.0914E-08
  7.0905E-08
  7.0912E-08
  7.0920E-08
  2.8352E-07
  2.8347E-07
  2.8342E-07
  2.8357E-07
  2.8352E-07
  2.8347E-07
  2.8362E-07
  2.8357E-07
  2.8352E-07
  1.0632E-06
  1.0631E-06
  1.0629E-06
  1.0634E-06
  1.0632E-06
  1.0631E-06
  1.0636E-06
  1.0634E-06
  1.0632E-06
  4.0818E-06
  4.0815E-06
  4.0811E-06
  4.0822E-06
  4.0818E-06
  4.0815E-06
  4.0825E-06
  4.0822E-06
  4.0818E-06
  1.5068E-05
  1.5068E-05
  1.5069E-05
  1.5068E-05
  1.5068E-05
  1.5068E-05
  1.5068E-05
  1.5068E-05
  1.5068E-05
  5.5901E-05
  5.5901E-05
  5.5901E-05
  5.5900E-05
  5.5901E-05
  5.5901E-05
  5.5900E-05
  5.5900E-05
  5.5901E-05
  2.0861E-04
  2.0861E-04
  2.0861E-04
  2.0861E-04
  2.0861E-04
  2.0861E-04
  2.0861E-04
  2.0861E-04
  2.0861E-04
  7.7914E-04
  7.7914E-04
  7.7914E-04
  7.7914E-04
  7.7914E-04
  7.7914E-04
  7.7914E-04
  7.7914E-04
  7.7914E-04
  2.9099E-03
  2.9099E-03
  2.9099E-03
  2.9099E-03
  2.9099E-03
  2.9099E-03
  2.9099E-03
  2.9099E-03
  2.9099E-03
  1.0867E-02
  1.0867E-02
  1.0867E-02
  1.0867E-02
  1.0867E-02
  1.0867E-02
  1.0867E-02
  1.0867E-02
  1.0867E-02
  4.0584E-02
  4.0584E-02
  4.0584E-02
  4.0584E-02
  4.0584E-02
  4.0584E-02
  4.0584E-02
  4.0584E-02
  4.0584E-02
  1.5158E-01
  1.5158E-01
  1.5158E-01
  1.5158E-01
  1.5158E-01
  1.5158E-01
  1.5158E-01
  1.5158E-01
  1.5158E-01
  5.6593E-01
  5.6593E-01
  5.6593E-01
  5.6593E-01
  5.6593E-01
  5.6593E-01
  5.6593E-01
  5.6593E-01
  5.6593E-01
  8.9273E-01
  8.9273E-01
  8.9273E-01
  8.9273E-01
  8.9273E-01
  8.9273E-01
  8.9273E-01
  8.9273E-01
  8.9273E-01
   2.2600E-02
  1.1503E-14
  1.5527E-14
  1.9551E-14
  5.7517E-15
  1.0618E-14
  1.5485E-14
  0.0000E+00
  5.7092E-15
  1.1418E-14
  6.8139E-14
  7.7199E-14
  8.6259E-14
  3.4070E-14
  5.5622E-14
  7.7174E-14
  0.0000E+00
  3.4044E-14
  6.8088E-14
  2.5667E-13
  2.8950E-13
  3.2232E-13
  1.2834E-13
  2.0891E-13
  2.8948E-13
  0.0000E+00
  1.2832E-13
  2.5664E-13
  8.9001E-13
  1.0182E-12
  1.1464E-12
  4.4501E-13
  7.3159E-13
  1.0182E-12
  0.0000E+00
  4.4499E-13
  8.8998E-13
  3.3849E-12
  3.8615E-12
  4.3382E-12
  1.6924E-12
  2.7770E-12
  3.8615E-12
  0.0000E+00
  1.6924E-12
  3.3849E-12
  1.2731E-11
  1.4496E-11
  1.6261E-11
  6.3655E-12
  1.0431E-11
  1.4496E-11
  0.0000E+00
  6.3655E-12
  1.2731E-11
  4.7467E-11
  5.4056E-11
  6.0644E-11
  2.3734E-11
  3.8895E-11
  5.4056E-11
  0.0000E+00
  2.3734E-11
  4.7467E-11
  7.1552E-08
  7.1546E-08
  7.1540E-08
  7.1544E-08
  7.1545E-08
  7.1546E-08
  7.1536E-08
  7.1544E-08
  7.1552E-08
  2.8605E-07
  2.8600E-07
  2.8595E-07
  2.8610E-07
  2.8605E-07
  2.8600E-07
  2.8615E-07
  2.8610E-07
  2.8605E-07
  1.0727E-06
  1.0725E-06
  1.0724E-06
  1.0729E-06
  1.0727E-06
  1.0725E-06
  1.0730E-06
  1.0729E-06
  1.0727E-06
  4.1178E-06
  4.1175E-06
  4.1172E-06
  4.1182E-06
  4.1178E-06
  4.1175E-06
  4.1185E-06
  4.1182E-06
  4.1178E-06
  1.5201E-05
  1.5201E-05
  1.5202E-05
  1.5201E-05
  1.5201E-05
  1.5201E-05
  1.5201E-05
  1.5201E-05
  1.5201E-05
  5.6396E-05
  5.6396E-05
  5.6396E-05
  5.6396E-05
  5.6396E-05
  5.6396E-05
  5.6395E-05
  5.6396E-05
  5.6396E-05
  2.1046E-04
  2.1046E-04
  2.1046E-04
  2.1046E-04
  2.1046E-04
  2.1046E-04
  2.1046E-04
  2.1046E-04
  2.1046E-04
  7.8605E-04
  7.8605E-04
  7.8605E-04
  7.8605E-04
  7.8605E-04
  7.8605E-04
  7.8605E-04
  7.8605E-04
  7.8605E-04
  2.9357E-03
  2.9357E-03
  2.9357E-03
  2.9357E-03
  2.9357E-03
  2.9357E-03
  2.9357E-03
  2.9357E-03
  2.9357E-03
  1.0964E-02
  1.0964E-02
  1.0964E-02
  1.0964E-02
  1.0964E-02
  1.0964E-02
  1.0964E-02
  1.0964E-02
  1.0964E-02
  4.0945E-02
  4.0945E-02
  4.0945E-02
  4.0945E-02
  4.0945E-02
  4.0945E-02
  4.0945E-02
  4.0945E-02
  4.0945E-02
  1.5293E-01
  1.5293E-01
  1.5293E-01
  1.5293E-01
  1.5293E-01
  1.5293E-01
  1.5293E-01
  1.5293E-01
  1.5293E-01
  5.7097E-01
  5.7097E-01
  5.7097E-01
  5.7097E-01
  5.7097E-01
  5.7097E-01
  5.7097E-01
  5.7097E-01
  5.7097E-01
  9.0068E-01
  9.0068E-01
  9.0068E-01
  9.0068E-01
  9.0068E-01
  9.0068E-01
  9.0068E-01
  9.0068E-01
  9.0068E-01
   2.2700E-02
  1.1708E-14
  1.5803E-14
  1.9899E-14
  5.8539E-15
  1.0807E-14
  1.5760E-14
  0.0000E+00
  5.8110E-15
  1.1622E-14
  6.8637E-14
  7.7885E-14
  8.7133E-14
  3.4319E-14
  5.6089E-14
  7.7859E-14
  0.0000E+00
  3.4293E-14
  6.8585E-14
  2.5873E-13
  2.9233E-13
  3.2594E-13
  1.2936E-13
  2.1084E-13
  2.9232E-13
  0.0000E+00
  1.2935E-13
  2.5869E-13
  9.3447E-13
  1.0631E-12
  1.1917E-12
  4.6724E-13
  7.6516E-13
  1.0631E-12
  0.0000E+00
  4.6722E-13
  9.3444E-13
  3.4778E-12
  3.9585E-12
  4.4392E-12
  1.7389E-12
  2.8487E-12
  3.9585E-12
  0.0000E+00
  1.7389E-12
  3.4778E-12
  1.2941E-11
  1.4737E-11
  1.6534E-11
  6.4704E-12
  1.0604E-11
  1.4738E-11
  0.0000E+00
  6.4704E-12
  1.2941E-11
  4.8297E-11
  5.5005E-11
  6.1713E-11
  2.4148E-11
  3.9577E-11
  5.5005E-11
  0.0000E+00
  2.4148E-11
  4.8297E-11
  7.2187E-08
  7.2181E-08
  7.2175E-08
  7.2179E-08
  7.2180E-08
  7.2181E-08
  7.2171E-08
  7.2179E-08
  7.2187E-08
  2.8858E-07
  2.8853E-07
  2.8848E-07
  2.8863E-07
  2.8858E-07
  2.8853E-07
  2.8868E-07
  2.8863E-07
  2.8858E-07
  1.0822E-06
  1.0821E-06
  1.0819E-06
  1.0824E-06
  1.0822E-06
  1.0821E-06
  1.0826E-06
  1.0824E-06
  1.0822E-06
  4.1540E-06
  4.1537E-06
  4.1533E-06
  4.1544E-06
  4.1540E-06
  4.1537E-06
  4.1547E-06
  4.1544E-06
  4.1540E-06
  1.5335E-05
  1.5335E-05
  1.5335E-05
  1.5335E-05
  1.5335E-05
  1.5335E-05
  1.5335E-05
  1.5335E-05
  1.5335E-05
  5.6893E-05
  5.6893E-05
  5.6893E-05
  5.6893E-05
  5.6893E-05
  5.6893E-05
  5.6893E-05
  5.6893E-05
  5.6893E-05
  2.1232E-04
  2.1232E-04
  2.1232E-04
  2.1232E-04
  2.1232E-04
  2.1232E-04
  2.1232E-04
  2.1232E-04
  2.1232E-04
  7.9300E-04
  7.9300E-04
  7.9300E-04
  7.9300E-04
  7.9300E-04
  7.9300E-04
  7.9300E-04
  7.9300E-04
  7.9300E-04
  2.9617E-03
  2.9617E-03
  2.9617E-03
  2.9617E-03
  2.9617E-03
  2.9617E-03
  2.9617E-03
  2.9617E-03
  2.9617E-03
  1.1061E-02
  1.1061E-02
  1.1061E-02
  1.1061E-02
  1.1061E-02
  1.1061E-02
  1.1061E-02
  1.1061E-02
  1.1061E-02
  4.1308E-02
  4.1308E-02
  4.1308E-02
  4.1308E-02
  4.1308E-02
  4.1308E-02
  4.1308E-02
  4.1308E-02
  4.1308E-02
  1.5428E-01
  1.5428E-01
  1.5428E-01
  1.5428E-01
  1.5428E-01
  1.5428E-01
  1.5428E-01
  1.5428E-01
  1.5428E-01
  5.7603E-01
  5.7603E-01
  5.7603E-01
  5.7603E-01
  5.7603E-01
  5.7603E-01
  5.7603E-01
  5.7603E-01
  5.7603E-01
  9.0866E-01
  9.0866E-01
  9.0866E-01
  9.0866E-01
  9.0866E-01
  9.0866E-01
  9.0866E-01
  9.0866E-01
  9.0866E-01
   2.2800E-02
  1.1915E-14
  1.6083E-14
  2.0252E-14
  5.9575E-15
  1.0999E-14
  1.6040E-14
  0.0000E+00
  5.9143E-15
  1.1829E-14
  6.9144E-14
  7.8583E-14
  8.8021E-14
  3.4572E-14
  5.6564E-14
  7.8556E-14
  0.0000E+00
  3.4546E-14
  6.9092E-14
  2.6082E-13
  2.9522E-13
  3.2962E-13
  1.3041E-13
  2.1281E-13
  2.9520E-13
  0.0000E+00
  1.3039E-13
  2.6079E-13
  9.4243E-13
  1.0741E-12
  1.2057E-12
  4.7121E-13
  7.7264E-13
  1.0741E-12
  0.0000E+00
  4.7120E-13
  9.4240E-13
  3.5076E-12
  3.9995E-12
  4.4914E-12
  1.7538E-12
  2.8767E-12
  3.9995E-12
  0.0000E+00
  1.7538E-12
  3.5076E-12
  1.3125E-11
  1.4959E-11
  1.6792E-11
  6.5626E-12
  1.0761E-11
  1.4959E-11
  0.0000E+00
  6.5626E-12
  1.3125E-11
  4.9131E-11
  5.5962E-11
  6.2793E-11
  2.4566E-11
  4.0264E-11
  5.5962E-11
  0.0000E+00
  2.4566E-11
  4.9131E-11
  7.2824E-08
  7.2818E-08
  7.2812E-08
  7.2816E-08
  7.2817E-08
  7.2818E-08
  7.2808E-08
  7.2816E-08
  7.2824E-08
  2.9113E-07
  2.9108E-07
  2.9103E-07
  2.9118E-07
  2.9113E-07
  2.9108E-07
  2.9123E-07
  2.9118E-07
  2.9113E-07
  1.0918E-06
  1.0916E-06
  1.0914E-06
  1.0919E-06
  1.0918E-06
  1.0916E-06
  1.0921E-06
  1.0919E-06
  1.0918E-06
  4.1904E-06
  4.1900E-06
  4.1897E-06
  4.1907E-06
  4.1904E-06
  4.1900E-06
  4.1910E-06
  4.1907E-06
  4.1904E-06
  1.5469E-05
  1.5469E-05
  1.5469E-05
  1.5469E-05
  1.5469E-05
  1.5469E-05
  1.5469E-05
  1.5469E-05
  1.5469E-05
  5.7392E-05
  5.7393E-05
  5.7393E-05
  5.7392E-05
  5.7392E-05
  5.7393E-05
  5.7392E-05
  5.7392E-05
  5.7392E-05
  2.1419E-04
  2.1419E-04
  2.1419E-04
  2.1419E-04
  2.1419E-04
  2.1419E-04
  2.1419E-04
  2.1419E-04
  2.1419E-04
  7.9997E-04
  7.9997E-04
  7.9997E-04
  7.9997E-04
  7.9997E-04
  7.9997E-04
  7.9997E-04
  7.9997E-04
  7.9997E-04
  2.9877E-03
  2.9877E-03
  2.9877E-03
  2.9877E-03
  2.9877E-03
  2.9877E-03
  2.9877E-03
  2.9877E-03
  2.9877E-03
  1.1158E-02
  1.1158E-02
  1.1158E-02
  1.1158E-02
  1.1158E-02
  1.1158E-02
  1.1158E-02
  1.1158E-02
  1.1158E-02
  4.1672E-02
  4.1672E-02
  4.1672E-02
  4.1672E-02
  4.1672E-02
  4.1672E-02
  4.1672E-02
  4.1672E-02
  4.1672E-02
  1.5564E-01
  1.5564E-01
  1.5564E-01
  1.5564E-01
  1.5564E-01
  1.5564E-01
  1.5564E-01
  1.5564E-01
  1.5564E-01
  5.8111E-01
  5.8111E-01
  5.8111E-01
  5.8111E-01
  5.8111E-01
  5.8111E-01
  5.8111E-01
  5.8111E-01
  5.8111E-01
  9.1668E-01
  9.1668E-01
  9.1668E-01
  9.1668E-01
  9.1668E-01
  9.1668E-01
  9.1668E-01
  9.1668E-01
  9.1668E-01
   2.2900E-02
  1.2125E-14
  1.6367E-14
  2.0609E-14
  6.0624E-15
  1.1193E-14
  1.6324E-14
  0.0000E+00
  6.0188E-15
  1.2038E-14
  6.9659E-14
  7.9291E-14
  8.8924E-14
  3.4830E-14
  5.7047E-14
  7.9265E-14
  0.0000E+00
  3.4803E-14
  6.9606E-14
  2.6295E-13
  2.9816E-13
  3.3336E-13
  1.3148E-13
  2.1481E-13
  2.9814E-13
  0.0000E+00
  1.3146E-13
  2.6291E-13
  9.5053E-13
  1.0852E-12
  1.2199E-12
  4.7526E-13
  7.8023E-13
  1.0852E-12
  0.0000E+00
  4.7525E-13
  9.5050E-13
  3.6110E-12
  4.1092E-12
  4.6074E-12
  1.8055E-12
  2.9573E-12
  4.1092E-12
  0.0000E+00
  1.8055E-12
  3.6110E-12
  1.3438E-11
  1.5295E-11
  1.7152E-11
  6.7191E-12
  1.1007E-11
  1.5295E-11
  0.0000E+00
  6.7191E-12
  1.3438E-11
  5.0026E-11
  5.6971E-11
  6.3917E-11
  2.5013E-11
  4.0992E-11
  5.6972E-11
  0.0000E+00
  2.5013E-11
  5.0026E-11
  7.3464E-08
  7.3458E-08
  7.3452E-08
  7.3456E-08
  7.3457E-08
  7.3458E-08
  7.3448E-08
  7.3456E-08
  7.3464E-08
  2.9369E-07
  2.9364E-07
  2.9358E-07
  2.9374E-07
  2.9369E-07
  2.9364E-07
  2.9379E-07
  2.9374E-07
  2.9369E-07
  1.1014E-06
  1.1012E-06
  1.1010E-06
  1.1015E-06
  1.1014E-06
  1.1012E-06
  1.1017E-06
  1.1015E-06
  1.1014E-06
  4.2269E-06
  4.2265E-06
  4.2262E-06
  4.2272E-06
  4.2269E-06
  4.2265E-06
  4.2275E-06
  4.2272E-06
  4.2269E-06
  1.5604E-05
  1.5604E-05
  1.5604E-05
  1.5604E-05
  1.5604E-05
  1.5604E-05
  1.5604E-05
  1.5604E-05
  1.5604E-05
  5.7894E-05
  5.7894E-05
  5.7894E-05
  5.7894E-05
  5.7894E-05
  5.7894E-05
  5.7893E-05
  5.7894E-05
  5.7894E-05
  2.1606E-04
  2.1606E-04
  2.1606E-04
  2.1606E-04
  2.1606E-04
  2.1606E-04
  2.1606E-04
  2.1606E-04
  2.1606E-04
  8.0697E-04
  8.0697E-04
  8.0697E-04
  8.0697E-04
  8.0697E-04
  8.0697E-04
  8.0697E-04
  8.0697E-04
  8.0697E-04
  3.0139E-03
  3.0139E-03
  3.0139E-03
  3.0139E-03
  3.0139E-03
  3.0139E-03
  3.0139E-03
  3.0139E-03
  3.0139E-03
  1.1256E-02
  1.1256E-02
  1.1256E-02
  1.1256E-02
  1.1256E-02
  1.1256E-02
  1.1256E-02
  1.1256E-02
  1.1256E-02
  4.2037E-02
  4.2037E-02
  4.2037E-02
  4.2037E-02
  4.2037E-02
  4.2037E-02
  4.2037E-02
  4.2037E-02
  4.2037E-02
  1.5701E-01
  1.5701E-01
  1.5701E-01
  1.5701E-01
  1.5701E-01
  1.5701E-01
  1.5701E-01
  1.5701E-01
  1.5701E-01
  5.8622E-01
  5.8622E-01
  5.8622E-01
  5.8622E-01
  5.8622E-01
  5.8622E-01
  5.8622E-01
  5.8622E-01
  5.8622E-01
  9.2473E-01
  9.2473E-01
  9.2473E-01
  9.2473E-01
  9.2473E-01
  9.2473E-01
  9.2473E-01
  9.2473E-01
  9.2473E-01
   2.3000E-02
  1.2338E-14
  1.6655E-14
  2.0972E-14
  6.1688E-15
  1.1390E-14
  1.6611E-14
  0.0000E+00
  6.1248E-15
  1.2250E-14
  7.0183E-14
  8.0012E-14
  8.9841E-14
  3.5091E-14
  5.7538E-14
  7.9985E-14
  0.0000E+00
  3.5065E-14
  7.0129E-14
  2.6512E-13
  3.0114E-13
  3.3716E-13
  1.3256E-13
  2.1684E-13
  3.0112E-13
  0.0000E+00
  1.3254E-13
  2.6508E-13
  9.5876E-13
  1.0966E-12
  1.2343E-12
  4.7938E-13
  7.8796E-13
  1.0965E-12
  0.0000E+00
  4.7937E-13
  9.5873E-13
  3.6415E-12
  4.1512E-12
  4.6610E-12
  1.8207E-12
  2.9860E-12
  4.1512E-12
  0.0000E+00
  1.8207E-12
  3.6415E-12
  1.3662E-11
  1.5554E-11
  1.7447E-11
  6.8310E-12
  1.1193E-11
  1.5554E-11
  0.0000E+00
  6.8310E-12
  1.3662E-11
  5.0935E-11
  5.8000E-11
  6.5065E-11
  2.5468E-11
  4.1734E-11
  5.8000E-11
  0.0000E+00
  2.5468E-11
  5.0935E-11
  7.4108E-08
  7.4101E-08
  7.4095E-08
  7.4099E-08
  7.4100E-08
  7.4101E-08
  7.4091E-08
  7.4099E-08
  7.4108E-08
  2.9626E-07
  2.9620E-07
  2.9615E-07
  2.9631E-07
  2.9626E-07
  2.9620E-07
  2.9636E-07
  2.9631E-07
  2.9626E-07
  1.1110E-06
  1.1108E-06
  1.1106E-06
  1.1112E-06
  1.1110E-06
  1.1108E-06
  1.1114E-06
  1.1112E-06
  1.1110E-06
  4.2635E-06
  4.2632E-06
  4.2628E-06
  4.2639E-06
  4.2635E-06
  4.2632E-06
  4.2642E-06
  4.2639E-06
  4.2635E-06
  1.5739E-05
  1.5740E-05
  1.5740E-05
  1.5739E-05
  1.5739E-05
  1.5740E-05
  1.5739E-05
  1.5739E-05
  1.5739E-05
  5.8398E-05
  5.8398E-05
  5.8398E-05
  5.8397E-05
  5.8398E-05
  5.8398E-05
  5.8397E-05
  5.8397E-05
  5.8398E-05
  2.1794E-04
  2.1794E-04
  2.1794E-04
  2.1794E-04
  2.1794E-04
  2.1794E-04
  2.1794E-04
  2.1794E-04
  2.1794E-04
  8.1401E-04
  8.1401E-04
  8.1401E-04
  8.1401E-04
  8.1401E-04
  8.1401E-04
  8.1401E-04
  8.1401E-04
  8.1401E-04
  3.0402E-03
  3.0402E-03
  3.0402E-03
  3.0402E-03
  3.0402E-03
  3.0402E-03
  3.0402E-03
  3.0402E-03
  3.0402E-03
  1.1354E-02
  1.1354E-02
  1.1354E-02
  1.1354E-02
  1.1354E-02
  1.1354E-02
  1.1354E-02
  1.1354E-02
  1.1354E-02
  4.2404E-02
  4.2404E-02
  4.2404E-02
  4.2404E-02
  4.2404E-02
  4.2404E-02
  4.2404E-02
  4.2404E-02
  4.2404E-02
  1.5838E-01
  1.5838E-01
  1.5838E-01
  1.5838E-01
  1.5838E-01
  1.5838E-01
  1.5838E-01
  1.5838E-01
  1.5838E-01
  5.9134E-01
  5.9134E-01
  5.9134E-01
  5.9134E-01
  5.9134E-01
  5.9134E-01
  5.9134E-01
  5.9134E-01
  5.9134E-01
  9.3282E-01
  9.3282E-01
  9.3282E-01
  9.3282E-01
  9.3282E-01
  9.3282E-01
  9.3282E-01
  9.3282E-01
  9.3282E-01
   2.3100E-02
  1.2553E-14
  1.6946E-14
  2.1339E-14
  6.2765E-15
  1.1589E-14
  1.6901E-14
  0.0000E+00
  6.2321E-15
  1.2464E-14
  7.0715E-14
  8.0744E-14
  9.0774E-14
  3.5357E-14
  5.8037E-14
  8.0717E-14
  0.0000E+00
  3.5330E-14
  7.0661E-14
  2.6732E-13
  3.0418E-13
  3.4103E-13
  1.3366E-13
  2.1891E-13
  3.0416E-13
  0.0000E+00
  1.3364E-13
  2.6728E-13
  9.6713E-13
  1.1081E-12
  1.2490E-12
  4.8357E-13
  7.9581E-13
  1.1081E-12
  0.0000E+00
  4.8355E-13
  9.6710E-13
  3.6725E-12
  4.1940E-12
  4.7154E-12
  1.8363E-12
  3.0151E-12
  4.1940E-12
  0.0000E+00
  1.8363E-12
  3.6725E-12
  1.3851E-11
  1.5782E-11
  1.7713E-11
  6.9254E-12
  1.1354E-11
  1.5782E-11
  0.0000E+00
  6.9254E-12
  1.3851E-11
  5.1786E-11
  5.8980E-11
  6.6173E-11
  2.5893E-11
  4.2437E-11
  5.8980E-11
  0.0000E+00
  2.5893E-11
  5.1786E-11
  7.4754E-08
  7.4747E-08
  7.4741E-08
  7.4745E-08
  7.4746E-08
  7.4747E-08
  7.4737E-08
  7.4745E-08
  7.4754E-08
  2.9884E-07
  2.9878E-07
  2.9873E-07
  2.9889E-07
  2.9884E-07
  2.9878E-07
  2.9895E-07
  2.9889E-07
  2.9884E-07
  1.1207E-06
  1.1205E-06
  1.1203E-06
  1.1209E-06
  1.1207E-06
  1.1205E-06
  1.1210E-06
  1.1209E-06
  1.1207E-06
  4.3003E-06
  4.3000E-06
  4.2996E-06
  4.3007E-06
  4.3003E-06
  4.3000E-06
  4.3010E-06
  4.3007E-06
  4.3003E-06
  1.5875E-05
  1.5875E-05
  1.5876E-05
  1.5875E-05
  1.5875E-05
  1.5875E-05
  1.5875E-05
  1.5875E-05
  1.5875E-05
  5.8903E-05
  5.8904E-05
  5.8904E-05
  5.8903E-05
  5.8903E-05
  5.8904E-05
  5.8903E-05
  5.8903E-05
  5.8903E-05
  2.1983E-04
  2.1983E-04
  2.1983E-04
  2.1983E-04
  2.1983E-04
  2.1983E-04
  2.1983E-04
  2.1983E-04
  2.1983E-04
  8.2107E-04
  8.2107E-04
  8.2107E-04
  8.2107E-04
  8.2107E-04
  8.2107E-04
  8.2107E-04
  8.2107E-04
  8.2107E-04
  3.0666E-03
  3.0666E-03
  3.0666E-03
  3.0666E-03
  3.0666E-03
  3.0666E-03
  3.0666E-03
  3.0666E-03
  3.0666E-03
  1.1453E-02
  1.1453E-02
  1.1453E-02
  1.1453E-02
  1.1453E-02
  1.1453E-02
  1.1453E-02
  1.1453E-02
  1.1453E-02
  4.2773E-02
  4.2773E-02
  4.2773E-02
  4.2773E-02
  4.2773E-02
  4.2773E-02
  4.2773E-02
  4.2773E-02
  4.2773E-02
  1.5976E-01
  1.5976E-01
  1.5976E-01
  1.5976E-01
  1.5976E-01
  1.5976E-01
  1.5976E-01
  1.5976E-01
  1.5976E-01
  5.9649E-01
  5.9649E-01
  5.9649E-01
  5.9649E-01
  5.9649E-01
  5.9649E-01
  5.9649E-01
  5.9649E-01
  5.9649E-01
  9.4094E-01
  9.4094E-01
  9.4094E-01
  9.4094E-01
  9.4094E-01
  9.4094E-01
  9.4094E-01
  9.4094E-01
  9.4094E-01
   2.3200E-02
  1.2771E-14
  1.7241E-14
  2.1710E-14
  6.3856E-15
  1.1791E-14
  1.7196E-14
  0.0000E+00
  6.3409E-15
  1.2682E-14
  7.1256E-14
  8.1489E-14
  9.1722E-14
  3.5628E-14
  5.8545E-14
  8.1462E-14
  0.0000E+00
  3.5601E-14
  7.1201E-14
  2.6956E-13
  3.0726E-13
  3.4496E-13
  1.3478E-13
  2.2101E-13
  3.0724E-13
  0.0000E+00
  1.3476E-13
  2.6952E-13
  9.7565E-13
  1.1198E-12
  1.2639E-12
  4.8782E-13
  8.0380E-13
  1.1198E-12
  0.0000E+00
  4.8781E-13
  9.7562E-13
  3.7772E-12
  4.3056E-12
  4.8339E-12
  1.8886E-12
  3.0971E-12
  4.3056E-12
  0.0000E+00
  1.8886E-12
  3.7773E-12
  1.4168E-11
  1.6124E-11
  1.8080E-11
  7.0842E-12
  1.1604E-11
  1.6124E-11
  0.0000E+00
  7.0842E-12
  1.4168E-11
  5.2771E-11
  6.0081E-11
  6.7391E-11
  2.6385E-11
  4.3233E-11
  6.0081E-11
  0.0000E+00
  2.6385E-11
  5.2771E-11
  7.5402E-08
  7.5396E-08
  7.5389E-08
  7.5394E-08
  7.5395E-08
  7.5396E-08
  7.5385E-08
  7.5394E-08
  7.5402E-08
  3.0143E-07
  3.0138E-07
  3.0132E-07
  3.0149E-07
  3.0143E-07
  3.0138E-07
  3.0154E-07
  3.0149E-07
  3.0143E-07
  1.1304E-06
  1.1302E-06
  1.1300E-06
  1.1306E-06
  1.1304E-06
  1.1302E-06
  1.1308E-06
  1.1306E-06
  1.1304E-06
  4.3373E-06
  4.3369E-06
  4.3366E-06
  4.3376E-06
  4.3373E-06
  4.3369E-06
  4.3380E-06
  4.3376E-06
  4.3373E-06
  1.6012E-05
  1.6012E-05
  1.6012E-05
  1.6012E-05
  1.6012E-05
  1.6012E-05
  1.6012E-05
  1.6012E-05
  1.6012E-05
  5.9411E-05
  5.9412E-05
  5.9412E-05
  5.9411E-05
  5.9411E-05
  5.9412E-05
  5.9411E-05
  5.9411E-05
  5.9411E-05
  2.2173E-04
  2.2173E-04
  2.2173E-04
  2.2173E-04
  2.2173E-04
  2.2173E-04
  2.2173E-04
  2.2173E-04
  2.2173E-04
  8.2817E-04
  8.2817E-04
  8.2817E-04
  8.2817E-04
  8.2817E-04
  8.2817E-04
  8.2817E-04
  8.2817E-04
  8.2817E-04
  3.0931E-03
  3.0931E-03
  3.0931E-03
  3.0931E-03
  3.0931E-03
  3.0931E-03
  3.0931E-03
  3.0931E-03
  3.0931E-03
  1.1552E-02
  1.1552E-02
  1.1552E-02
  1.1552E-02
  1.1552E-02
  1.1552E-02
  1.1552E-02
  1.1552E-02
  1.1552E-02
  4.3144E-02
  4.3144E-02
  4.3144E-02
  4.3144E-02
  4.3144E-02
  4.3144E-02
  4.3144E-02
  4.3144E-02
  4.3144E-02
  1.6114E-01
  1.6114E-01
  1.6114E-01
  1.6114E-01
  1.6114E-01
  1.6114E-01
  1.6114E-01
  1.6114E-01
  1.6114E-01
  6.0166E-01
  6.0166E-01
  6.0166E-01
  6.0166E-01
  6.0166E-01
  6.0166E-01
  6.0166E-01
  6.0166E-01
  6.0166E-01
  9.4910E-01
  9.4910E-01
  9.4910E-01
  9.4910E-01
  9.4910E-01
  9.4910E-01
  9.4910E-01
  9.4910E-01
  9.4910E-01
   2.3300E-02
  1.2992E-14
  1.7540E-14
  2.2087E-14
  6.4961E-15
  1.1995E-14
  1.7495E-14
  0.0000E+00
  6.4510E-15
  1.2902E-14
  7.1806E-14
  8.2245E-14
  9.2685E-14
  3.5903E-14
  5.9060E-14
  8.2218E-14
  0.0000E+00
  3.5875E-14
  7.1751E-14
  2.7184E-13
  3.1040E-13
  3.4896E-13
  1.3592E-13
  2.2315E-13
  3.1038E-13
  0.0000E+00
  1.3590E-13
  2.7180E-13
  1.0209E-12
  1.1657E-12
  1.3106E-12
  5.1043E-13
  8.3807E-13
  1.1657E-12
  0.0000E+00
  5.1041E-13
  1.0208E-12
  3.8726E-12
  4.4059E-12
  4.9391E-12
  1.9363E-12
  3.1711E-12
  4.4059E-12
  0.0000E+00
  1.9363E-12
  3.8727E-12
  1.4387E-11
  1.6378E-11
  1.8369E-11
  7.1936E-12
  1.1786E-11
  1.6378E-11
  0.0000E+00
  7.1936E-12
  1.4387E-11
  5.3633E-11
  6.1076E-11
  6.8519E-11
  2.6817E-11
  4.3946E-11
  6.1076E-11
  0.0000E+00
  2.6817E-11
  5.3633E-11
  7.6054E-08
  7.6047E-08
  7.6041E-08
  7.6045E-08
  7.6046E-08
  7.6047E-08
  7.6037E-08
  7.6045E-08
  7.6054E-08
  3.0403E-07
  3.0398E-07
  3.0392E-07
  3.0409E-07
  3.0403E-07
  3.0398E-07
  3.0415E-07
  3.0409E-07
  3.0403E-07
  1.1402E-06
  1.1400E-06
  1.1398E-06
  1.1404E-06
  1.1402E-06
  1.1400E-06
  1.1405E-06
  1.1404E-06
  1.1402E-06
  4.3744E-06
  4.3741E-06
  4.3737E-06
  4.3747E-06
  4.3744E-06
  4.3741E-06
  4.3751E-06
  4.3747E-06
  4.3744E-06
  1.6149E-05
  1.6149E-05
  1.6149E-05
  1.6149E-05
  1.6149E-05
  1.6149E-05
  1.6149E-05
  1.6149E-05
  1.6149E-05
  5.9922E-05
  5.9922E-05
  5.9922E-05
  5.9921E-05
  5.9922E-05
  5.9922E-05
  5.9921E-05
  5.9921E-05
  5.9922E-05
  2.2364E-04
  2.2364E-04
  2.2364E-04
  2.2364E-04
  2.2364E-04
  2.2364E-04
  2.2364E-04
  2.2364E-04
  2.2364E-04
  8.3529E-04
  8.3529E-04
  8.3529E-04
  8.3529E-04
  8.3529E-04
  8.3529E-04
  8.3529E-04
  8.3529E-04
  8.3529E-04
  3.1197E-03
  3.1197E-03
  3.1197E-03
  3.1197E-03
  3.1197E-03
  3.1197E-03
  3.1197E-03
  3.1197E-03
  3.1197E-03
  1.1652E-02
  1.1652E-02
  1.1652E-02
  1.1652E-02
  1.1652E-02
  1.1652E-02
  1.1652E-02
  1.1652E-02
  1.1652E-02
  4.3516E-02
  4.3516E-02
  4.3516E-02
  4.3516E-02
  4.3516E-02
  4.3516E-02
  4.3516E-02
  4.3516E-02
  4.3516E-02
  1.6253E-01
  1.6253E-01
  1.6253E-01
  1.6253E-01
  1.6253E-01
  1.6253E-01
  1.6253E-01
  1.6253E-01
  1.6253E-01
  6.0686E-01
  6.0686E-01
  6.0686E-01
  6.0686E-01
  6.0686E-01
  6.0686E-01
  6.0686E-01
  6.0686E-01
  6.0686E-01
  9.5730E-01
  9.5730E-01
  9.5730E-01
  9.5730E-01
  9.5730E-01
  9.5730E-01
  9.5730E-01
  9.5730E-01
  9.5730E-01
   2.3400E-02
  1.3216E-14
  1.7842E-14
  2.2469E-14
  6.6081E-15
  1.2202E-14
  1.7797E-14
  0.0000E+00
  6.5626E-15
  1.3125E-14
  7.2364E-14
  8.3014E-14
  9.3663E-14
  3.6182E-14
  5.9584E-14
  8.2986E-14
  0.0000E+00
  3.6155E-14
  7.2309E-14
  2.7416E-13
  3.1359E-13
  3.5302E-13
  1.3708E-13
  2.2532E-13
  3.1357E-13
  0.0000E+00
  1.3706E-13
  2.7412E-13
  1.0295E-12
  1.1776E-12
  1.3258E-12
  5.1476E-13
  8.4619E-13
  1.1776E-12
  0.0000E+00
  5.1474E-13
  1.0295E-12
  3.9048E-12
  4.4501E-12
  4.9955E-12
  1.9524E-12
  3.2013E-12
  4.4501E-12
  0.0000E+00
  1.9524E-12
  3.9048E-12
  1.4617E-11
  1.6646E-11
  1.8675E-11
  7.3085E-12
  1.1977E-11
  1.6646E-11
  0.0000E+00
  7.3085E-12
  1.4617E-11
  5.4565E-11
  6.2136E-11
  6.9706E-11
  2.7283E-11
  4.4709E-11
  6.2136E-11
  0.0000E+00
  2.7283E-11
  5.4565E-11
  7.6708E-08
  7.6702E-08
  7.6695E-08
  7.6699E-08
  7.6700E-08
  7.6702E-08
  7.6691E-08
  7.6699E-08
  7.6708E-08
  3.0665E-07
  3.0659E-07
  3.0653E-07
  3.0671E-07
  3.0665E-07
  3.0659E-07
  3.0676E-07
  3.0671E-07
  3.0665E-07
  1.1500E-06
  1.1498E-06
  1.1496E-06
  1.1502E-06
  1.1500E-06
  1.1498E-06
  1.1504E-06
  1.1502E-06
  1.1500E-06
  4.4117E-06
  4.4113E-06
  4.4110E-06
  4.4120E-06
  4.4117E-06
  4.4113E-06
  4.4124E-06
  4.4120E-06
  4.4117E-06
  1.6287E-05
  1.6287E-05
  1.6287E-05
  1.6287E-05
  1.6287E-05
  1.6287E-05
  1.6286E-05
  1.6287E-05
  1.6287E-05
  6.0434E-05
  6.0434E-05
  6.0434E-05
  6.0434E-05
  6.0434E-05
  6.0434E-05
  6.0433E-05
  6.0434E-05
  6.0434E-05
  2.2555E-04
  2.2555E-04
  2.2555E-04
  2.2555E-04
  2.2555E-04
  2.2555E-04
  2.2555E-04
  2.2555E-04
  2.2555E-04
  8.4245E-04
  8.4245E-04
  8.4245E-04
  8.4244E-04
  8.4245E-04
  8.4245E-04
  8.4244E-04
  8.4244E-04
  8.4245E-04
  3.1465E-03
  3.1465E-03
  3.1465E-03
  3.1465E-03
  3.1465E-03
  3.1465E-03
  3.1465E-03
  3.1465E-03
  3.1465E-03
  1.1752E-02
  1.1752E-02
  1.1752E-02
  1.1752E-02
  1.1752E-02
  1.1752E-02
  1.1752E-02
  1.1752E-02
  1.1752E-02
  4.3889E-02
  4.3889E-02
  4.3889E-02
  4.3889E-02
  4.3889E-02
  4.3889E-02
  4.3889E-02
  4.3889E-02
  4.3889E-02
  1.6393E-01
  1.6393E-01
  1.6393E-01
  1.6393E-01
  1.6393E-01
  1.6393E-01
  1.6393E-01
  1.6393E-01
  1.6393E-01
  6.1207E-01
  6.1207E-01
  6.1207E-01
  6.1207E-01
  6.1207E-01
  6.1207E-01
  6.1207E-01
  6.1207E-01
  6.1207E-01
  9.6552E-01
  9.6552E-01
  9.6552E-01
  9.6552E-01
  9.6552E-01
  9.6552E-01
  9.6552E-01
  9.6552E-01
  9.6552E-01
   2.3500E-02
  1.3443E-14
  1.8149E-14
  2.2855E-14
  6.7215E-15
  1.2412E-14
  1.8103E-14
  0.0000E+00
  6.6756E-15
  1.3351E-14
  7.2932E-14
  8.3795E-14
  9.4657E-14
  3.6466E-14
  6.0116E-14
  8.3767E-14
  0.0000E+00
  3.6438E-14
  7.2876E-14
  2.7651E-13
  3.1683E-13
  3.5714E-13
  1.3826E-13
  2.2753E-13
  3.1681E-13
  0.0000E+00
  1.3824E-13
  2.7648E-13
  1.0383E-12
  1.1898E-12
  1.3412E-12
  5.1916E-13
  8.5445E-13
  1.1897E-12
  0.0000E+00
  5.1915E-13
  1.0383E-12
  3.9374E-12
  4.4951E-12
  5.0528E-12
  1.9687E-12
  3.2319E-12
  4.4951E-12
  0.0000E+00
  1.9687E-12
  3.9375E-12
  1.4812E-11
  1.6882E-11
  1.8951E-11
  7.4059E-12
  1.2144E-11
  1.6882E-11
  0.0000E+00
  7.4060E-12
  1.4812E-11
  5.5512E-11
  6.3215E-11
  7.0918E-11
  2.7756E-11
  4.5486E-11
  6.3215E-11
  0.0000E+00
  2.7756E-11
  5.5513E-11
  7.7366E-08
  7.7359E-08
  7.7352E-08
  7.7357E-08
  7.7358E-08
  7.7359E-08
  7.7348E-08
  7.7357E-08
  7.7366E-08
  3.0927E-07
  3.0922E-07
  3.0916E-07
  3.0933E-07
  3.0927E-07
  3.0922E-07
  3.0939E-07
  3.0933E-07
  3.0927E-07
  1.1598E-06
  1.1596E-06
  1.1594E-06
  1.1600E-06
  1.1598E-06
  1.1596E-06
  1.1602E-06
  1.1600E-06
  1.1598E-06
  4.4491E-06
  4.4488E-06
  4.4484E-06
  4.4495E-06
  4.4491E-06
  4.4488E-06
  4.4498E-06
  4.4495E-06
  4.4491E-06
  1.6425E-05
  1.6425E-05
  1.6425E-05
  1.6425E-05
  1.6425E-05
  1.6425E-05
  1.6425E-05
  1.6425E-05
  1.6425E-05
  6.0948E-05
  6.0948E-05
  6.0949E-05
  6.0948E-05
  6.0948E-05
  6.0948E-05
  6.0948E-05
  6.0948E-05
  6.0948E-05
  2.2747E-04
  2.2747E-04
  2.2747E-04
  2.2747E-04
  2.2747E-04
  2.2747E-04
  2.2747E-04
  2.2747E-04
  2.2747E-04
  8.4963E-04
  8.4963E-04
  8.4963E-04
  8.4963E-04
  8.4963E-04
  8.4963E-04
  8.4963E-04
  8.4963E-04
  8.4963E-04
  3.1733E-03
  3.1733E-03
  3.1733E-03
  3.1733E-03
  3.1733E-03
  3.1733E-03
  3.1733E-03
  3.1733E-03
  3.1733E-03
  1.1852E-02
  1.1852E-02
  1.1852E-02
  1.1852E-02
  1.1852E-02
  1.1852E-02
  1.1852E-02
  1.1852E-02
  1.1852E-02
  4.4264E-02
  4.4264E-02
  4.4264E-02
  4.4264E-02
  4.4264E-02
  4.4264E-02
  4.4264E-02
  4.4264E-02
  4.4264E-02
  1.6533E-01
  1.6533E-01
  1.6533E-01
  1.6533E-01
  1.6533E-01
  1.6533E-01
  1.6533E-01
  1.6533E-01
  1.6533E-01
  6.1731E-01
  6.1731E-01
  6.1731E-01
  6.1731E-01
  6.1731E-01
  6.1731E-01
  6.1731E-01
  6.1731E-01
  6.1731E-01
  9.7379E-01
  9.7379E-01
  9.7379E-01
  9.7379E-01
  9.7379E-01
  9.7379E-01
  9.7379E-01
  9.7379E-01
  9.7379E-01
   2.3600E-02
  1.3673E-14
  1.8460E-14
  2.3246E-14
  6.8364E-15
  1.2625E-14
  1.8413E-14
  0.0000E+00
  6.7901E-15
  1.3580E-14
  7.3509E-14
  8.4588E-14
  9.5667E-14
  3.6755E-14
  6.0657E-14
  8.4560E-14
  0.0000E+00
  3.6726E-14
  7.3453E-14
  2.7891E-13
  3.2012E-13
  3.6133E-13
  1.3945E-13
  2.2978E-13
  3.2010E-13
  0.0000E+00
  1.3943E-13
  2.7887E-13
  1.0473E-12
  1.2021E-12
  1.3569E-12
  5.2364E-13
  8.6284E-13
  1.2021E-12
  0.0000E+00
  5.2362E-13
  1.0472E-12
  4.0436E-12
  4.6087E-12
  5.1738E-12
  2.0218E-12
  3.3153E-12
  4.6087E-12
  0.0000E+00
  2.0218E-12
  4.0436E-12
  1.5135E-11
  1.7232E-11
  1.9330E-11
  7.5677E-12
  1.2400E-11
  1.7233E-11
  0.0000E+00
  7.5678E-12
  1.5136E-11
  5.6446E-11
  6.4279E-11
  7.2112E-11
  2.8223E-11
  4.6251E-11
  6.4279E-11
  0.0000E+00
  2.8223E-11
  5.6447E-11
  7.8025E-08
  7.8018E-08
  7.8011E-08
  7.8016E-08
  7.8017E-08
  7.8018E-08
  7.8007E-08
  7.8016E-08
  7.8025E-08
  3.1191E-07
  3.1185E-07
  3.1179E-07
  3.1197E-07
  3.1191E-07
  3.1185E-07
  3.1203E-07
  3.1197E-07
  3.1191E-07
  1.1697E-06
  1.1695E-06
  1.1693E-06
  1.1699E-06
  1.1697E-06
  1.1695E-06
  1.1701E-06
  1.1699E-06
  1.1697E-06
  4.4867E-06
  4.4863E-06
  4.4860E-06
  4.4870E-06
  4.4867E-06
  4.4863E-06
  4.4874E-06
  4.4870E-06
  4.4867E-06
  1.6564E-05
  1.6564E-05
  1.6564E-05
  1.6564E-05
  1.6564E-05
  1.6564E-05
  1.6563E-05
  1.6564E-05
  1.6564E-05
  6.1465E-05
  6.1465E-05
  6.1465E-05
  6.1465E-05
  6.1465E-05
  6.1465E-05
  6.1464E-05
  6.1465E-05
  6.1465E-05
  2.2940E-04
  2.2940E-04
  2.2940E-04
  2.2940E-04
  2.2940E-04
  2.2940E-04
  2.2940E-04
  2.2940E-04
  2.2940E-04
  8.5684E-04
  8.5684E-04
  8.5684E-04
  8.5684E-04
  8.5684E-04
  8.5684E-04
  8.5684E-04
  8.5684E-04
  8.5684E-04
  3.2003E-03
  3.2003E-03
  3.2003E-03
  3.2003E-03
  3.2003E-03
  3.2003E-03
  3.2003E-03
  3.2003E-03
  3.2003E-03
  1.1953E-02
  1.1953E-02
  1.1953E-02
  1.1953E-02
  1.1953E-02
  1.1953E-02
  1.1953E-02
  1.1953E-02
  1.1953E-02
  4.4641E-02
  4.4641E-02
  4.4641E-02
  4.4641E-02
  4.4641E-02
  4.4641E-02
  4.4641E-02
  4.4641E-02
  4.4641E-02
  1.6674E-01
  1.6674E-01
  1.6674E-01
  1.6674E-01
  1.6674E-01
  1.6674E-01
  1.6674E-01
  1.6674E-01
  1.6674E-01
  6.2257E-01
  6.2257E-01
  6.2257E-01
  6.2257E-01
  6.2257E-01
  6.2257E-01
  6.2257E-01
  6.2257E-01
  6.2257E-01
  9.8209E-01
  9.8209E-01
  9.8209E-01
  9.8209E-01
  9.8209E-01
  9.8209E-01
  9.8209E-01
  9.8209E-01
  9.8209E-01
   2.3700E-02
  1.3905E-14
  1.8774E-14
  2.3643E-14
  6.9527E-15
  1.2840E-14
  1.8727E-14
  0.0000E+00
  6.9060E-15
  1.3812E-14
  7.4095E-14
  8.5394E-14
  9.6693E-14
  3.7048E-14
  6.1207E-14
  8.5366E-14
  0.0000E+00
  3.7019E-14
  7.4039E-14
  2.8134E-13
  3.2347E-13
  3.6559E-13
  1.4067E-13
  2.3206E-13
  3.2345E-13
  0.0000E+00
  1.4065E-13
  2.8130E-13
  1.0564E-12
  1.2146E-12
  1.3728E-12
  5.2819E-13
  8.7137E-13
  1.2146E-12
  0.0000E+00
  5.2817E-13
  1.0563E-12
  4.0771E-12
  4.6548E-12
  5.2325E-12
  2.0386E-12
  3.3467E-12
  4.6548E-12
  0.0000E+00
  2.0386E-12
  4.0771E-12
  1.5370E-11
  1.7507E-11
  1.9643E-11
  7.6850E-12
  1.2596E-11
  1.7507E-11
  0.0000E+00
  7.6850E-12
  1.5370E-11
  5.7396E-11
  6.5363E-11
  7.3330E-11
  2.8698E-11
  4.7030E-11
  6.5363E-11
  0.0000E+00
  2.8698E-11
  5.7396E-11
  7.8688E-08
  7.8681E-08
  7.8674E-08
  7.8679E-08
  7.8680E-08
  7.8681E-08
  7.8670E-08
  7.8679E-08
  7.8688E-08
  3.1456E-07
  3.1450E-07
  3.1444E-07
  3.1462E-07
  3.1456E-07
  3.1450E-07
  3.1468E-07
  3.1462E-07
  3.1456E-07
  1.1796E-06
  1.1794E-06
  1.1792E-06
  1.1798E-06
  1.1796E-06
  1.1794E-06
  1.1800E-06
  1.1798E-06
  1.1796E-06
  4.5244E-06
  4.5241E-06
  4.5237E-06
  4.5248E-06
  4.5244E-06
  4.5241E-06
  4.5251E-06
  4.5248E-06
  4.5244E-06
  1.6703E-05
  1.6703E-05
  1.6703E-05
  1.6703E-05
  1.6703E-05
  1.6703E-05
  1.6703E-05
  1.6703E-05
  1.6703E-05
  6.1983E-05
  6.1984E-05
  6.1984E-05
  6.1983E-05
  6.1983E-05
  6.1984E-05
  6.1983E-05
  6.1983E-05
  6.1983E-05
  2.3134E-04
  2.3134E-04
  2.3134E-04
  2.3134E-04
  2.3134E-04
  2.3134E-04
  2.3134E-04
  2.3134E-04
  2.3134E-04
  8.6409E-04
  8.6409E-04
  8.6409E-04
  8.6409E-04
  8.6409E-04
  8.6409E-04
  8.6409E-04
  8.6409E-04
  8.6409E-04
  3.2274E-03
  3.2274E-03
  3.2274E-03
  3.2274E-03
  3.2274E-03
  3.2274E-03
  3.2274E-03
  3.2274E-03
  3.2274E-03
  1.2054E-02
  1.2054E-02
  1.2054E-02
  1.2054E-02
  1.2054E-02
  1.2054E-02
  1.2054E-02
  1.2054E-02
  1.2054E-02
  4.5019E-02
  4.5019E-02
  4.5019E-02
  4.5019E-02
  4.5019E-02
  4.5019E-02
  4.5019E-02
  4.5019E-02
  4.5019E-02
  1.6815E-01
  1.6815E-01
  1.6815E-01
  1.6815E-01
  1.6815E-01
  1.6815E-01
  1.6815E-01
  1.6815E-01
  1.6815E-01
  6.2785E-01
  6.2785E-01
  6.2785E-01
  6.2785E-01
  6.2785E-01
  6.2785E-01
  6.2785E-01
  6.2785E-01
  6.2785E-01
  9.9042E-01
  9.9042E-01
  9.9042E-01
  9.9042E-01
  9.9042E-01
  9.9042E-01
  9.9042E-01
  9.9042E-01
  9.9042E-01
   2.3800E-02
  1.4141E-14
  1.9093E-14
  2.4044E-14
  7.0705E-15
  1.3058E-14
  1.9045E-14
  0.0000E+00
  7.0235E-15
  1.4047E-14
  7.4691E-14
  8.6213E-14
  9.7735E-14
  3.7345E-14
  6.1765E-14
  8.6184E-14
  0.0000E+00
  3.7317E-14
  7.4634E-14
  2.8382E-13
  3.2686E-13
  3.6991E-13
  1.4191E-13
  2.3438E-13
  3.2684E-13
  0.0000E+00
  1.4189E-13
  2.8378E-13
  1.0656E-12
  1.2273E-12
  1.3889E-12
  5.3281E-13
  8.8004E-13
  1.2273E-12
  0.0000E+00
  5.3279E-13
  1.0656E-12
  4.1111E-12
  4.7017E-12
  5.2922E-12
  2.0556E-12
  3.3786E-12
  4.7017E-12
  0.0000E+00
  2.0556E-12
  4.1112E-12
  1.5570E-11
  1.7749E-11
  1.9928E-11
  7.7848E-12
  1.2767E-11
  1.7749E-11
  0.0000E+00
  7.7849E-12
  1.5570E-11
  5.8361E-11
  6.6467E-11
  7.4572E-11
  2.9180E-11
  4.7824E-11
  6.6467E-11
  0.0000E+00
  2.9180E-11
  5.8361E-11
  7.9354E-08
  7.9347E-08
  7.9339E-08
  7.9344E-08
  7.9345E-08
  7.9347E-08
  7.9335E-08
  7.9344E-08
  7.9354E-08
  3.1722E-07
  3.1716E-07
  3.1710E-07
  3.1728E-07
  3.1722E-07
  3.1716E-07
  3.1734E-07
  3.1728E-07
  3.1722E-07
  1.1896E-06
  1.1894E-06
  1.1892E-06
  1.1898E-06
  1.1896E-06
  1.1894E-06
  1.1900E-06
  1.1898E-06
  1.1896E-06
  4.5623E-06
  4.5620E-06
  4.5616E-06
  4.5627E-06
  4.5623E-06
  4.5620E-06
  4.5630E-06
  4.5627E-06
  4.5623E-06
  1.6843E-05
  1.6843E-05
  1.6843E-05
  1.6843E-05
  1.6843E-05
  1.6843E-05
  1.6843E-05
  1.6843E-05
  1.6843E-05
  6.2504E-05
  6.2505E-05
  6.2505E-05
  6.2504E-05
  6.2504E-05
  6.2505E-05
  6.2504E-05
  6.2504E-05
  6.2504E-05
  2.3329E-04
  2.3329E-04
  2.3329E-04
  2.3329E-04
  2.3329E-04
  2.3329E-04
  2.3329E-04
  2.3329E-04
  2.3329E-04
  8.7136E-04
  8.7136E-04
  8.7136E-04
  8.7136E-04
  8.7136E-04
  8.7136E-04
  8.7136E-04
  8.7136E-04
  8.7136E-04
  3.2546E-03
  3.2546E-03
  3.2546E-03
  3.2546E-03
  3.2546E-03
  3.2546E-03
  3.2546E-03
  3.2546E-03
  3.2546E-03
  1.2156E-02
  1.2156E-02
  1.2156E-02
  1.2156E-02
  1.2156E-02
  1.2156E-02
  1.2156E-02
  1.2156E-02
  1.2156E-02
  4.5399E-02
  4.5399E-02
  4.5399E-02
  4.5399E-02
  4.5399E-02
  4.5399E-02
  4.5399E-02
  4.5399E-02
  4.5399E-02
  1.6957E-01
  1.6957E-01
  1.6957E-01
  1.6957E-01
  1.6957E-01
  1.6957E-01
  1.6957E-01
  1.6957E-01
  1.6957E-01
  6.3316E-01
  6.3316E-01
  6.3316E-01
  6.3316E-01
  6.3316E-01
  6.3316E-01
  6.3316E-01
  6.3316E-01
  6.3316E-01
  9.9879E-01
  9.9879E-01
  9.9879E-01
  9.9879E-01
  9.9879E-01
  9.9879E-01
  9.9879E-01
  9.9879E-01
  9.9879E-01
   2.3900E-02
  1.4380E-14
  1.9415E-14
  2.4451E-14
  7.1898E-15
  1.3279E-14
  1.9368E-14
  0.0000E+00
  7.1424E-15
  1.4285E-14
  7.5296E-14
  8.7044E-14
  9.8793E-14
  3.7648E-14
  6.2332E-14
  8.7016E-14
  0.0000E+00
  3.7619E-14
  7.5238E-14
  2.8633E-13
  3.3032E-13
  3.7430E-13
  1.4316E-13
  2.3673E-13
  3.3030E-13
  0.0000E+00
  1.4314E-13
  2.8629E-13
  1.1116E-12
  1.2742E-12
  1.4368E-12
  5.5578E-13
  9.1498E-13
  1.2742E-12
  0.0000E+00
  5.5576E-13
  1.1115E-12
  4.2823E-12
  4.8737E-12
  5.4650E-12
  2.1412E-12
  3.5074E-12
  4.8737E-12
  0.0000E+00
  2.1412E-12
  4.2823E-12
  1.5962E-11
  1.8163E-11
  2.0364E-11
  7.9809E-12
  1.3072E-11
  1.8163E-11
  0.0000E+00
  7.9809E-12
  1.5962E-11
  5.9449E-11
  6.7680E-11
  7.5911E-11
  2.9725E-11
  4.8702E-11
  6.7680E-11
  0.0000E+00
  2.9725E-11
  5.9450E-11
  8.0022E-08
  8.0015E-08
  8.0008E-08
  8.0013E-08
  8.0014E-08
  8.0015E-08
  8.0003E-08
  8.0013E-08
  8.0022E-08
  3.1989E-07
  3.1983E-07
  3.1976E-07
  3.1995E-07
  3.1989E-07
  3.1983E-07
  3.2001E-07
  3.1995E-07
  3.1989E-07
  1.1996E-06
  1.1994E-06
  1.1992E-06
  1.1998E-06
  1.1996E-06
  1.1994E-06
  1.2000E-06
  1.1998E-06
  1.1996E-06
  4.6004E-06
  4.6000E-06
  4.5997E-06
  4.6007E-06
  4.6004E-06
  4.6000E-06
  4.6011E-06
  4.6007E-06
  4.6004E-06
  1.6984E-05
  1.6984E-05
  1.6984E-05
  1.6983E-05
  1.6984E-05
  1.6984E-05
  1.6983E-05
  1.6983E-05
  1.6984E-05
  6.3027E-05
  6.3028E-05
  6.3028E-05
  6.3027E-05
  6.3027E-05
  6.3028E-05
  6.3027E-05
  6.3027E-05
  6.3027E-05
  2.3524E-04
  2.3524E-04
  2.3524E-04
  2.3524E-04
  2.3524E-04
  2.3524E-04
  2.3524E-04
  2.3524E-04
  2.3524E-04
  8.7867E-04
  8.7867E-04
  8.7867E-04
  8.7867E-04
  8.7867E-04
  8.7867E-04
  8.7867E-04
  8.7867E-04
  8.7867E-04
  3.2819E-03
  3.2819E-03
  3.2819E-03
  3.2819E-03
  3.2819E-03
  3.2819E-03
  3.2819E-03
  3.2819E-03
  3.2819E-03
  1.2258E-02
  1.2258E-02
  1.2258E-02
  1.2258E-02
  1.2258E-02
  1.2258E-02
  1.2258E-02
  1.2258E-02
  1.2258E-02
  4.5781E-02
  4.5781E-02
  4.5781E-02
  4.5781E-02
  4.5781E-02
  4.5781E-02
  4.5781E-02
  4.5781E-02
  4.5781E-02
  1.7100E-01
  1.7100E-01
  1.7100E-01
  1.7100E-01
  1.7100E-01
  1.7100E-01
  1.7100E-01
  1.7100E-01
  1.7100E-01
  6.3849E-01
  6.3849E-01
  6.3849E-01
  6.3849E-01
  6.3849E-01
  6.3849E-01
  6.3849E-01
  6.3849E-01
  6.3849E-01
  1.0072E+00
  1.0072E+00
  1.0072E+00
  1.0072E+00
  1.0072E+00
  1.0072E+00
  1.0072E+00
  1.0072E+00
  1.0072E+00
   2.4000E-02
  1.4621E-14
  1.9742E-14
  2.4862E-14
  7.3106E-15
  1.3502E-14
  1.9694E-14
  0.0000E+00
  7.2628E-15
  1.4526E-14
  7.5910E-14
  8.7889E-14
  9.9868E-14
  3.7955E-14
  6.2908E-14
  8.7860E-14
  0.0000E+00
  3.7926E-14
  7.5852E-14
  2.8888E-13
  3.3382E-13
  3.7876E-13
  1.4444E-13
  2.3912E-13
  3.3380E-13
  0.0000E+00
  1.4442E-13
  2.8884E-13
  1.1210E-12
  1.2871E-12
  1.4533E-12
  5.6048E-13
  9.2380E-13
  1.2871E-12
  0.0000E+00
  5.6046E-13
  1.1209E-12
  4.3170E-12
  4.9214E-12
  5.5259E-12
  2.1585E-12
  3.5400E-12
  4.9214E-12
  0.0000E+00
  2.1585E-12
  4.3170E-12
  1.6164E-11
  1.8410E-11
  2.0655E-11
  8.0822E-12
  1.3246E-11
  1.8410E-11
  0.0000E+00
  8.0822E-12
  1.6164E-11
  6.0353E-11
  6.8732E-11
  7.7111E-11
  3.0177E-11
  4.9454E-11
  6.8732E-11
  0.0000E+00
  3.0177E-11
  6.0353E-11
  8.0693E-08
  8.0686E-08
  8.0678E-08
  8.0684E-08
  8.0685E-08
  8.0686E-08
  8.0674E-08
  8.0684E-08
  8.0693E-08
  3.2257E-07
  3.2251E-07
  3.2244E-07
  3.2263E-07
  3.2257E-07
  3.2251E-07
  3.2270E-07
  3.2263E-07
  3.2257E-07
  1.2097E-06
  1.2095E-06
  1.2093E-06
  1.2099E-06
  1.2097E-06
  1.2095E-06
  1.2101E-06
  1.2099E-06
  1.2097E-06
  4.6386E-06
  4.6383E-06
  4.6379E-06
  4.6390E-06
  4.6386E-06
  4.6383E-06
  4.6393E-06
  4.6390E-06
  4.6386E-06
  1.7125E-05
  1.7125E-05
  1.7125E-05
  1.7125E-05
  1.7125E-05
  1.7125E-05
  1.7124E-05
  1.7125E-05
  1.7125E-05
  6.3552E-05
  6.3553E-05
  6.3553E-05
  6.3552E-05
  6.3552E-05
  6.3553E-05
  6.3552E-05
  6.3552E-05
  6.3552E-05
  2.3720E-04
  2.3720E-04
  2.3720E-04
  2.3720E-04
  2.3720E-04
  2.3720E-04
  2.3720E-04
  2.3720E-04
  2.3720E-04
  8.8600E-04
  8.8600E-04
  8.8600E-04
  8.8600E-04
  8.8600E-04
  8.8600E-04
  8.8600E-04
  8.8600E-04
  8.8600E-04
  3.3093E-03
  3.3093E-03
  3.3093E-03
  3.3093E-03
  3.3093E-03
  3.3093E-03
  3.3093E-03
  3.3093E-03
  3.3093E-03
  1.2360E-02
  1.2360E-02
  1.2360E-02
  1.2360E-02
  1.2360E-02
  1.2360E-02
  1.2360E-02
  1.2360E-02
  1.2360E-02
  4.6164E-02
  4.6164E-02
  4.6164E-02
  4.6164E-02
  4.6164E-02
  4.6164E-02
  4.6164E-02
  4.6164E-02
  4.6164E-02
  1.7243E-01
  1.7243E-01
  1.7243E-01
  1.7243E-01
  1.7243E-01
  1.7243E-01
  1.7243E-01
  1.7243E-01
  1.7243E-01
  6.4383E-01
  6.4383E-01
  6.4383E-01
  6.4383E-01
  6.4383E-01
  6.4383E-01
  6.4383E-01
  6.4383E-01
  6.4383E-01
  1.0156E+00
  1.0156E+00
  1.0156E+00
  1.0156E+00
  1.0156E+00
  1.0156E+00
  1.0156E+00
  1.0156E+00
  1.0156E+00
   2.4100E-02
  1.4866E-14
  2.0072E-14
  2.5279E-14
  7.4329E-15
  1.3729E-14
  2.0024E-14
  0.0000E+00
  7.3847E-15
  1.4769E-14
  7.6534E-14
  8.8747E-14
  1.0096E-13
  3.8267E-14
  6.3492E-14
  8.8717E-14
  0.0000E+00
  3.8238E-14
  7.6476E-14
  2.9147E-13
  3.3738E-13
  3.8329E-13
  1.4574E-13
  2.4155E-13
  3.3736E-13
  0.0000E+00
  1.4572E-13
  2.9143E-13
  1.1305E-12
  1.3003E-12
  1.4700E-12
  5.6526E-13
  9.3276E-13
  1.3003E-12
  0.0000E+00
  5.6524E-13
  1.1305E-12
  4.3522E-12
  4.9699E-12
  5.5877E-12
  2.1761E-12
  3.5730E-12
  4.9699E-12
  0.0000E+00
  2.1761E-12
  4.3522E-12
  1.6406E-11
  1.8693E-11
  2.0980E-11
  8.2028E-12
  1.3448E-11
  1.8693E-11
  0.0000E+00
  8.2028E-12
  1.6406E-11
  6.1400E-11
  6.9917E-11
  7.8434E-11
  3.0700E-11
  5.0308E-11
  6.9917E-11
  0.0000E+00
  3.0700E-11
  6.1400E-11
  8.1367E-08
  8.1360E-08
  8.1352E-08
  8.1358E-08
  8.1359E-08
  8.1360E-08
  8.1348E-08
  8.1358E-08
  8.1367E-08
  3.2526E-07
  3.2520E-07
  3.2513E-07
  3.2533E-07
  3.2526E-07
  3.2520E-07
  3.2539E-07
  3.2533E-07
  3.2526E-07
  1.2198E-06
  1.2196E-06
  1.2193E-06
  1.2200E-06
  1.2198E-06
  1.2196E-06
  1.2202E-06
  1.2200E-06
  1.2198E-06
  4.6770E-06
  4.6766E-06
  4.6763E-06
  4.6773E-06
  4.6770E-06
  4.6766E-06
  4.6777E-06
  4.6773E-06
  4.6770E-06
  1.7266E-05
  1.7266E-05
  1.7267E-05
  1.7266E-05
  1.7266E-05
  1.7266E-05
  1.7266E-05
  1.7266E-05
  1.7266E-05
  6.4080E-05
  6.4080E-05
  6.4080E-05
  6.4079E-05
  6.4080E-05
  6.4080E-05
  6.4079E-05
  6.4079E-05
  6.4080E-05
  2.3917E-04
  2.3917E-04
  2.3917E-04
  2.3917E-04
  2.3917E-04
  2.3917E-04
  2.3917E-04
  2.3917E-04
  2.3917E-04
  8.9337E-04
  8.9337E-04
  8.9337E-04
  8.9337E-04
  8.9337E-04
  8.9337E-04
  8.9337E-04
  8.9337E-04
  8.9337E-04
  3.3368E-03
  3.3368E-03
  3.3368E-03
  3.3368E-03
  3.3368E-03
  3.3368E-03
  3.3368E-03
  3.3368E-03
  3.3368E-03
  1.2463E-02
  1.2463E-02
  1.2463E-02
  1.2463E-02
  1.2463E-02
  1.2463E-02
  1.2463E-02
  1.2463E-02
  1.2463E-02
  4.6548E-02
  4.6548E-02
  4.6548E-02
  4.6548E-02
  4.6548E-02
  4.6548E-02
  4.6548E-02
  4.6548E-02
  4.6548E-02
  1.7387E-01
  1.7387E-01
  1.7387E-01
  1.7387E-01
  1.7387E-01
  1.7387E-01
  1.7387E-01
  1.7387E-01
  1.7387E-01
  6.4921E-01
  6.4921E-01
  6.4921E-01
  6.4921E-01
  6.4921E-01
  6.4921E-01
  6.4921E-01
  6.4921E-01
  6.4921E-01
  1.0241E+00
  1.0241E+00
  1.0241E+00
  1.0241E+00
  1.0241E+00
  1.0241E+00
  1.0241E+00
  1.0241E+00
  1.0241E+00
   2.4200E-02
  1.5113E-14
  2.0407E-14
  2.5701E-14
  7.5567E-15
  1.3958E-14
  2.0359E-14
  0.0000E+00
  7.5081E-15
  1.5016E-14
  7.7168E-14
  8.9617E-14
  1.0207E-13
  3.8584E-14
  6.4086E-14
  8.9588E-14
  0.0000E+00
  3.8555E-14
  7.7109E-14
  2.9411E-13
  3.4099E-13
  3.8788E-13
  1.4705E-13
  2.4401E-13
  3.4097E-13
  0.0000E+00
  1.4703E-13
  2.9407E-13
  1.1402E-12
  1.3136E-12
  1.4870E-12
  5.7011E-13
  9.4186E-13
  1.3136E-12
  0.0000E+00
  5.7010E-13
  1.1402E-12
  4.4610E-12
  5.0872E-12
  5.7133E-12
  2.2305E-12
  3.6588E-12
  5.0872E-12
  0.0000E+00
  2.2305E-12
  4.4610E-12
  1.6739E-11
  1.9057E-11
  2.1375E-11
  8.3694E-12
  1.3713E-11
  1.9057E-11
  0.0000E+00
  8.3694E-12
  1.6739E-11
  6.2443E-11
  7.1099E-11
  7.9755E-11
  3.1221E-11
  5.1160E-11
  7.1099E-11
  0.0000E+00
  3.1222E-11
  6.2443E-11
  8.2044E-08
  8.2037E-08
  8.2029E-08
  8.2034E-08
  8.2035E-08
  8.2037E-08
  8.2024E-08
  8.2034E-08
  8.2044E-08
  3.2797E-07
  3.2790E-07
  3.2783E-07
  3.2803E-07
  3.2797E-07
  3.2790E-07
  3.2810E-07
  3.2803E-07
  3.2797E-07
  1.2299E-06
  1.2297E-06
  1.2295E-06
  1.2301E-06
  1.2299E-06
  1.2297E-06
  1.2303E-06
  1.2301E-06
  1.2299E-06
  4.7155E-06
  4.7152E-06
  4.7148E-06
  4.7159E-06
  4.7155E-06
  4.7152E-06
  4.7162E-06
  4.7159E-06
  4.7155E-06
  1.7409E-05
  1.7409E-05
  1.7409E-05
  1.7409E-05
  1.7409E-05
  1.7409E-05
  1.7408E-05
  1.7409E-05
  1.7409E-05
  6.4609E-05
  6.4609E-05
  6.4610E-05
  6.4609E-05
  6.4609E-05
  6.4609E-05
  6.4609E-05
  6.4609E-05
  6.4609E-05
  2.4115E-04
  2.4115E-04
  2.4115E-04
  2.4115E-04
  2.4115E-04
  2.4115E-04
  2.4115E-04
  2.4115E-04
  2.4115E-04
  9.0076E-04
  9.0076E-04
  9.0076E-04
  9.0076E-04
  9.0076E-04
  9.0076E-04
  9.0076E-04
  9.0076E-04
  9.0076E-04
  3.3645E-03
  3.3645E-03
  3.3645E-03
  3.3645E-03
  3.3645E-03
  3.3645E-03
  3.3645E-03
  3.3645E-03
  3.3645E-03
  1.2566E-02
  1.2566E-02
  1.2566E-02
  1.2566E-02
  1.2566E-02
  1.2566E-02
  1.2566E-02
  1.2566E-02
  1.2566E-02
  4.6934E-02
  4.6934E-02
  4.6934E-02
  4.6934E-02
  4.6934E-02
  4.6934E-02
  4.6934E-02
  4.6934E-02
  4.6934E-02
  1.7531E-01
  1.7531E-01
  1.7531E-01
  1.7531E-01
  1.7531E-01
  1.7531E-01
  1.7531E-01
  1.7531E-01
  1.7531E-01
  6.5460E-01
  6.5460E-01
  6.5460E-01
  6.5460E-01
  6.5460E-01
  6.5460E-01
  6.5460E-01
  6.5460E-01
  6.5460E-01
  1.0326E+00
  1.0326E+00
  1.0326E+00
  1.0326E+00
  1.0326E+00
  1.0326E+00
  1.0326E+00
  1.0326E+00
  1.0326E+00
   2.4300E-02
  1.5364E-14
  2.0746E-14
  2.6128E-14
  7.6821E-15
  1.4190E-14
  2.0697E-14
  0.0000E+00
  7.6331E-15
  1.5266E-14
  7.7812E-14
  9.0502E-14
  1.0319E-13
  3.8906E-14
  6.4689E-14
  9.0472E-14
  0.0000E+00
  3.8876E-14
  7.7752E-14
  3.6946E-13
  4.1221E-13
  4.5496E-13
  1.8473E-13
  2.9846E-13
  4.1219E-13
  0.0000E+00
  1.8471E-13
  3.6942E-13
  1.2768E-12
  1.4396E-12
  1.6025E-12
  6.3838E-13
  1.0390E-12
  1.4396E-12
  0.0000E+00
  6.3837E-13
  1.2767E-12
  4.5512E-12
  5.1818E-12
  5.8124E-12
  2.2756E-12
  3.7287E-12
  5.1818E-12
  0.0000E+00
  2.2756E-12
  4.5512E-12
  1.6983E-11
  1.9344E-11
  2.1705E-11
  8.4915E-12
  1.3918E-11
  1.9344E-11
  0.0000E+00
  8.4916E-12
  1.6983E-11
  6.3429E-11
  7.2233E-11
  8.1037E-11
  3.1714E-11
  5.1973E-11
  7.2233E-11
  0.0000E+00
  3.1714E-11
  6.3429E-11
  8.2724E-08
  8.2716E-08
  8.2708E-08
  8.2714E-08
  8.2715E-08
  8.2716E-08
  8.2703E-08
  8.2714E-08
  8.2724E-08
  3.3068E-07
  3.3061E-07
  3.3055E-07
  3.3075E-07
  3.3068E-07
  3.3061E-07
  3.3081E-07
  3.3075E-07
  3.3068E-07
  1.2401E-06
  1.2399E-06
  1.2397E-06
  1.2403E-06
  1.2401E-06
  1.2399E-06
  1.2405E-06
  1.2403E-06
  1.2401E-06
  4.7542E-06
  4.7538E-06
  4.7535E-06
  4.7545E-06
  4.7542E-06
  4.7538E-06
  4.7549E-06
  4.7545E-06
  4.7542E-06
  1.7551E-05
  1.7552E-05
  1.7552E-05
  1.7551E-05
  1.7551E-05
  1.7552E-05
  1.7551E-05
  1.7551E-05
  1.7551E-05
  6.5141E-05
  6.5141E-05
  6.5141E-05
  6.5140E-05
  6.5141E-05
  6.5141E-05
  6.5140E-05
  6.5140E-05
  6.5141E-05
  2.4314E-04
  2.4314E-04
  2.4314E-04
  2.4314E-04
  2.4314E-04
  2.4314E-04
  2.4314E-04
  2.4314E-04
  2.4314E-04
  9.0819E-04
  9.0819E-04
  9.0819E-04
  9.0819E-04
  9.0819E-04
  9.0819E-04
  9.0819E-04
  9.0819E-04
  9.0819E-04
  3.3922E-03
  3.3922E-03
  3.3922E-03
  3.3922E-03
  3.3922E-03
  3.3922E-03
  3.3922E-03
  3.3922E-03
  3.3922E-03
  1.2670E-02
  1.2670E-02
  1.2670E-02
  1.2670E-02
  1.2670E-02
  1.2670E-02
  1.2670E-02
  1.2670E-02
  1.2670E-02
  4.7322E-02
  4.7322E-02
  4.7322E-02
  4.7322E-02
  4.7322E-02
  4.7322E-02
  4.7322E-02
  4.7322E-02
  4.7322E-02
  1.7676E-01
  1.7676E-01
  1.7676E-01
  1.7676E-01
  1.7676E-01
  1.7676E-01
  1.7676E-01
  1.7676E-01
  1.7676E-01
  6.6002E-01
  6.6002E-01
  6.6002E-01
  6.6002E-01
  6.6002E-01
  6.6002E-01
  6.6002E-01
  6.6002E-01
  6.6002E-01
  1.0412E+00
  1.0412E+00
  1.0412E+00
  1.0412E+00
  1.0412E+00
  1.0412E+00
  1.0412E+00
  1.0412E+00
  1.0412E+00
   2.4400E-02
  1.5618E-14
  2.1089E-14
  2.6561E-14
  7.8090E-15
  1.4425E-14
  2.1040E-14
  0.0000E+00
  7.7596E-15
  1.5519E-14
  7.8465E-14
  9.1399E-14
  1.0433E-13
  3.9233E-14
  6.5301E-14
  9.1369E-14
  0.0000E+00
  3.9203E-14
  7.8406E-14
  3.7191E-13
  4.1561E-13
  4.5930E-13
  1.8596E-13
  3.0077E-13
  4.1559E-13
  0.0000E+00
  1.8594E-13
  3.7187E-13
  1.3230E-12
  1.4870E-12
  1.6510E-12
  6.6149E-13
  1.0742E-12
  1.4870E-12
  0.0000E+00
  6.6147E-13
  1.3229E-12
  4.6514E-12
  5.2887E-12
  5.9261E-12
  2.3257E-12
  3.8072E-12
  5.2887E-12
  0.0000E+00
  2.3257E-12
  4.6514E-12
  1.7220E-11
  1.9623E-11
  2.2026E-11
  8.6098E-12
  1.4116E-11
  1.9623E-11
  0.0000E+00
  8.6098E-12
  1.7220E-11
  6.4430E-11
  7.3387E-11
  8.2343E-11
  3.2215E-11
  5.2801E-11
  7.3387E-11
  0.0000E+00
  3.2215E-11
  6.4430E-11
  8.3406E-08
  8.3398E-08
  8.3390E-08
  8.3396E-08
  8.3397E-08
  8.3398E-08
  8.3385E-08
  8.3396E-08
  8.3406E-08
  3.3341E-07
  3.3334E-07
  3.3327E-07
  3.3347E-07
  3.3341E-07
  3.3334E-07
  3.3354E-07
  3.3347E-07
  3.3341E-07
  1.2503E-06
  1.2501E-06
  1.2499E-06
  1.2505E-06
  1.2503E-06
  1.2501E-06
  1.2507E-06
  1.2505E-06
  1.2503E-06
  4.7930E-06
  4.7927E-06
  4.7923E-06
  4.7934E-06
  4.7930E-06
  4.7927E-06
  4.7937E-06
  4.7934E-06
  4.7930E-06
  1.7695E-05
  1.7695E-05
  1.7695E-05
  1.7695E-05
  1.7695E-05
  1.7695E-05
  1.7695E-05
  1.7695E-05
  1.7695E-05
  6.5674E-05
  6.5675E-05
  6.5675E-05
  6.5674E-05
  6.5674E-05
  6.5675E-05
  6.5674E-05
  6.5674E-05
  6.5674E-05
  2.4513E-04
  2.4513E-04
  2.4513E-04
  2.4513E-04
  2.4513E-04
  2.4513E-04
  2.4513E-04
  2.4513E-04
  2.4513E-04
  9.1564E-04
  9.1564E-04
  9.1564E-04
  9.1564E-04
  9.1564E-04
  9.1564E-04
  9.1564E-04
  9.1564E-04
  9.1564E-04
  3.4201E-03
  3.4201E-03
  3.4201E-03
  3.4201E-03
  3.4201E-03
  3.4201E-03
  3.4201E-03
  3.4201E-03
  3.4201E-03
  1.2774E-02
  1.2774E-02
  1.2774E-02
  1.2774E-02
  1.2774E-02
  1.2774E-02
  1.2774E-02
  1.2774E-02
  1.2774E-02
  4.7712E-02
  4.7712E-02
  4.7712E-02
  4.7712E-02
  4.7712E-02
  4.7712E-02
  4.7712E-02
  4.7712E-02
  4.7712E-02
  1.7822E-01
  1.7822E-01
  1.7822E-01
  1.7822E-01
  1.7822E-01
  1.7822E-01
  1.7822E-01
  1.7822E-01
  1.7822E-01
  6.6546E-01
  6.6546E-01
  6.6546E-01
  6.6546E-01
  6.6546E-01
  6.6546E-01
  6.6546E-01
  6.6546E-01
  6.6546E-01
  1.0497E+00
  1.0497E+00
  1.0497E+00
  1.0497E+00
  1.0497E+00
  1.0497E+00
  1.0497E+00
  1.0497E+00
  1.0497E+00
   2.4500E-02
  1.5875E-14
  2.1437E-14
  2.6999E-14
  7.9375E-15
  1.4662E-14
  2.1387E-14
  0.0000E+00
  7.8877E-15
  1.5775E-14
  7.9129E-14
  9.2311E-14
  1.0549E-13
  3.9565E-14
  6.5922E-14
  9.2280E-14
  0.0000E+00
  3.9534E-14
  7.9069E-14
  3.7441E-13
  4.1906E-13
  4.6371E-13
  1.8720E-13
  3.0312E-13
  4.1904E-13
  0.0000E+00
  1.8718E-13
  3.7437E-13
  1.3326E-12
  1.5003E-12
  1.6679E-12
  6.6630E-13
  1.0833E-12
  1.5003E-12
  0.0000E+00
  6.6629E-13
  1.3326E-12
  4.7613E-12
  5.4075E-12
  6.0537E-12
  2.3806E-12
  3.8941E-12
  5.4075E-12
  0.0000E+00
  2.3806E-12
  4.7613E-12
  1.7594E-11
  2.0028E-11
  2.2461E-11
  8.7972E-12
  1.4412E-11
  2.0028E-11
  0.0000E+00
  8.7972E-12
  1.7594E-11
  6.5556E-11
  7.4651E-11
  8.3746E-11
  3.2778E-11
  5.3714E-11
  7.4651E-11
  0.0000E+00
  3.2778E-11
  6.5556E-11
  8.4092E-08
  8.4083E-08
  8.4075E-08
  8.4081E-08
  8.4082E-08
  8.4083E-08
  8.4070E-08
  8.4081E-08
  8.4092E-08
  3.3614E-07
  3.3608E-07
  3.3601E-07
  3.3621E-07
  3.3614E-07
  3.3608E-07
  3.3628E-07
  3.3621E-07
  3.3614E-07
  1.2606E-06
  1.2603E-06
  1.2601E-06
  1.2608E-06
  1.2606E-06
  1.2603E-06
  1.2610E-06
  1.2608E-06
  1.2606E-06
  4.8320E-06
  4.8317E-06
  4.8313E-06
  4.8324E-06
  4.8320E-06
  4.8317E-06
  4.8327E-06
  4.8324E-06
  4.8320E-06
  1.7839E-05
  1.7839E-05
  1.7839E-05
  1.7839E-05
  1.7839E-05
  1.7839E-05
  1.7839E-05
  1.7839E-05
  1.7839E-05
  6.6210E-05
  6.6210E-05
  6.6211E-05
  6.6210E-05
  6.6210E-05
  6.6210E-05
  6.6210E-05
  6.6210E-05
  6.6210E-05
  2.4714E-04
  2.4714E-04
  2.4714E-04
  2.4714E-04
  2.4714E-04
  2.4714E-04
  2.4714E-04
  2.4714E-04
  2.4714E-04
  9.2313E-04
  9.2313E-04
  9.2313E-04
  9.2313E-04
  9.2313E-04
  9.2313E-04
  9.2313E-04
  9.2313E-04
  9.2313E-04
  3.4481E-03
  3.4481E-03
  3.4481E-03
  3.4481E-03
  3.4481E-03
  3.4481E-03
  3.4481E-03
  3.4481E-03
  3.4481E-03
  1.2879E-02
  1.2879E-02
  1.2879E-02
  1.2879E-02
  1.2879E-02
  1.2879E-02
  1.2879E-02
  1.2879E-02
  1.2879E-02
  4.8103E-02
  4.8103E-02
  4.8103E-02
  4.8103E-02
  4.8103E-02
  4.8103E-02
  4.8103E-02
  4.8103E-02
  4.8103E-02
  1.7968E-01
  1.7968E-01
  1.7968E-01
  1.7968E-01
  1.7968E-01
  1.7968E-01
  1.7968E-01
  1.7968E-01
  1.7968E-01
  6.7092E-01
  6.7092E-01
  6.7092E-01
  6.7092E-01
  6.7092E-01
  6.7092E-01
  6.7092E-01
  6.7092E-01
  6.7092E-01
  1.0584E+00
  1.0584E+00
  1.0584E+00
  1.0584E+00
  1.0584E+00
  1.0584E+00
  1.0584E+00
  1.0584E+00
  1.0584E+00
   2.4600E-02
  1.6135E-14
  2.1789E-14
  2.7442E-14
  8.0676E-15
  1.4903E-14
  2.1738E-14
  0.0000E+00
  8.0174E-15
  1.6035E-14
  7.9803E-14
  9.3235E-14
  1.0667E-13
  3.9901E-14
  6.6553E-14
  9.3205E-14
  0.0000E+00
  3.9871E-14
  7.9742E-14
  3.7695E-13
  4.2257E-13
  4.6819E-13
  1.8847E-13
  3.0551E-13
  4.2255E-13
  0.0000E+00
  1.8845E-13
  3.7691E-13
  1.3424E-12
  1.5138E-12
  1.6852E-12
  6.7120E-13
  1.0925E-12
  1.5138E-12
  0.0000E+00
  6.7118E-13
  1.3424E-12
  4.7985E-12
  5.4588E-12
  6.1191E-12
  2.3993E-12
  3.9290E-12
  5.4588E-12
  0.0000E+00
  2.3993E-12
  4.7985E-12
  1.7844E-11
  2.0322E-11
  2.2801E-11
  8.9218E-12
  1.4622E-11
  2.0322E-11
  0.0000E+00
  8.9219E-12
  1.7844E-11
  6.6633E-11
  7.5879E-11
  8.5124E-11
  3.3317E-11
  5.4598E-11
  7.5879E-11
  0.0000E+00
  3.3317E-11
  6.6633E-11
  8.4780E-08
  8.4771E-08
  8.4763E-08
  8.4769E-08
  8.4770E-08
  8.4771E-08
  8.4758E-08
  8.4769E-08
  8.4780E-08
  3.3889E-07
  3.3882E-07
  3.3875E-07
  3.3896E-07
  3.3889E-07
  3.3882E-07
  3.3903E-07
  3.3896E-07
  3.3889E-07
  1.2709E-06
  1.2706E-06
  1.2704E-06
  1.2711E-06
  1.2709E-06
  1.2706E-06
  1.2713E-06
  1.2711E-06
  1.2709E-06
  4.8712E-06
  4.8708E-06
  4.8705E-06
  4.8715E-06
  4.8712E-06
  4.8708E-06
  4.8719E-06
  4.8715E-06
  4.8712E-06
  1.7983E-05
  1.7984E-05
  1.7984E-05
  1.7983E-05
  1.7983E-05
  1.7984E-05
  1.7983E-05
  1.7983E-05
  1.7983E-05
  6.6748E-05
  6.6748E-05
  6.6749E-05
  6.6748E-05
  6.6748E-05
  6.6748E-05
  6.6748E-05
  6.6748E-05
  6.6748E-05
  2.4915E-04
  2.4915E-04
  2.4915E-04
  2.4915E-04
  2.4915E-04
  2.4915E-04
  2.4915E-04
  2.4915E-04
  2.4915E-04
  9.3064E-04
  9.3064E-04
  9.3064E-04
  9.3064E-04
  9.3064E-04
  9.3064E-04
  9.3064E-04
  9.3064E-04
  9.3064E-04
  3.4762E-03
  3.4762E-03
  3.4762E-03
  3.4762E-03
  3.4762E-03
  3.4762E-03
  3.4762E-03
  3.4762E-03
  3.4762E-03
  1.2984E-02
  1.2984E-02
  1.2984E-02
  1.2984E-02
  1.2984E-02
  1.2984E-02
  1.2984E-02
  1.2984E-02
  1.2984E-02
  4.8495E-02
  4.8495E-02
  4.8495E-02
  4.8495E-02
  4.8495E-02
  4.8495E-02
  4.8495E-02
  4.8495E-02
  4.8495E-02
  1.8115E-01
  1.8115E-01
  1.8115E-01
  1.8115E-01
  1.8115E-01
  1.8115E-01
  1.8115E-01
  1.8115E-01
  1.8115E-01
  6.7640E-01
  6.7640E-01
  6.7640E-01
  6.7640E-01
  6.7640E-01
  6.7640E-01
  6.7640E-01
  6.7640E-01
  6.7640E-01
  1.0670E+00
  1.0670E+00
  1.0670E+00
  1.0670E+00
  1.0670E+00
  1.0670E+00
  1.0670E+00
  1.0670E+00
  1.0670E+00
   2.4700E-02
  1.6398E-14
  2.2145E-14
  2.7891E-14
  8.1992E-15
  1.5147E-14
  2.2094E-14
  0.0000E+00
  8.1486E-15
  1.6297E-14
  8.0487E-14
  9.4174E-14
  1.0786E-13
  4.0243E-14
  6.7194E-14
  9.4144E-14
  0.0000E+00
  4.0213E-14
  8.0425E-14
  3.7953E-13
  4.2614E-13
  4.7274E-13
  1.8976E-13
  3.0794E-13
  4.2612E-13
  0.0000E+00
  1.8974E-13
  3.7949E-13
  1.3523E-12
  1.5275E-12
  1.7027E-12
  6.7617E-13
  1.1018E-12
  1.5275E-12
  0.0000E+00
  6.7616E-13
  1.3523E-12
  4.9095E-12
  5.5791E-12
  6.2486E-12
  2.4548E-12
  4.0169E-12
  5.5791E-12
  0.0000E+00
  2.4548E-12
  4.9096E-12
  1.8186E-11
  2.0698E-11
  2.3211E-11
  9.0928E-12
  1.4895E-11
  2.0698E-11
  0.0000E+00
  9.0928E-12
  1.8186E-11
  6.7708E-11
  7.7104E-11
  8.6500E-11
  3.3854E-11
  5.5479E-11
  7.7104E-11
  0.0000E+00
  3.3854E-11
  6.7708E-11
  8.5470E-08
  8.5462E-08
  8.5454E-08
  8.5459E-08
  8.5461E-08
  8.5462E-08
  8.5449E-08
  8.5459E-08
  8.5470E-08
  3.4165E-07
  3.4158E-07
  3.4151E-07
  3.4172E-07
  3.4165E-07
  3.4158E-07
  3.4179E-07
  3.4172E-07
  3.4165E-07
  1.2812E-06
  1.2810E-06
  1.2808E-06
  1.2814E-06
  1.2812E-06
  1.2810E-06
  1.2817E-06
  1.2814E-06
  1.2812E-06
  4.9105E-06
  4.9101E-06
  4.9098E-06
  4.9108E-06
  4.9105E-06
  4.9101E-06
  4.9112E-06
  4.9108E-06
  4.9105E-06
  1.8129E-05
  1.8129E-05
  1.8129E-05
  1.8128E-05
  1.8129E-05
  1.8129E-05
  1.8128E-05
  1.8128E-05
  1.8129E-05
  6.7288E-05
  6.7289E-05
  6.7289E-05
  6.7288E-05
  6.7288E-05
  6.7289E-05
  6.7288E-05
  6.7288E-05
  6.7288E-05
  2.5116E-04
  2.5116E-04
  2.5116E-04
  2.5116E-04
  2.5116E-04
  2.5116E-04
  2.5116E-04
  2.5116E-04
  2.5116E-04
  9.3819E-04
  9.3819E-04
  9.3819E-04
  9.3819E-04
  9.3819E-04
  9.3819E-04
  9.3819E-04
  9.3819E-04
  9.3819E-04
  3.5044E-03
  3.5044E-03
  3.5044E-03
  3.5044E-03
  3.5044E-03
  3.5044E-03
  3.5044E-03
  3.5044E-03
  3.5044E-03
  1.3089E-02
  1.3089E-02
  1.3089E-02
  1.3089E-02
  1.3089E-02
  1.3089E-02
  1.3089E-02
  1.3089E-02
  1.3089E-02
  4.8889E-02
  4.8889E-02
  4.8889E-02
  4.8889E-02
  4.8889E-02
  4.8889E-02
  4.8889E-02
  4.8889E-02
  4.8889E-02
  1.8262E-01
  1.8262E-01
  1.8262E-01
  1.8262E-01
  1.8262E-01
  1.8262E-01
  1.8262E-01
  1.8262E-01
  1.8262E-01
  6.8190E-01
  6.8190E-01
  6.8190E-01
  6.8190E-01
  6.8190E-01
  6.8190E-01
  6.8190E-01
  6.8190E-01
  6.8190E-01
  1.0757E+00
  1.0757E+00
  1.0757E+00
  1.0757E+00
  1.0757E+00
  1.0757E+00
  1.0757E+00
  1.0757E+00
  1.0757E+00
   2.4800E-02
  1.6665E-14
  2.2505E-14
  2.8345E-14
  8.3325E-15
  1.5393E-14
  2.2454E-14
  0.0000E+00
  8.2815E-15
  1.6563E-14
  8.1181E-14
  9.5127E-14
  1.0907E-13
  4.0590E-14
  6.7843E-14
  9.5096E-14
  0.0000E+00
  4.0560E-14
  8.1119E-14
  3.8215E-13
  4.2976E-13
  4.7737E-13
  1.9107E-13
  3.1041E-13
  4.2974E-13
  0.0000E+00
  1.9105E-13
  3.8211E-13
  1.3625E-12
  1.5415E-12
  1.7205E-12
  6.8123E-13
  1.1113E-12
  1.5414E-12
  0.0000E+00
  6.8121E-13
  1.3624E-12
  4.9477E-12
  5.6317E-12
  6.3156E-12
  2.4739E-12
  4.0528E-12
  5.6317E-12
  0.0000E+00
  2.4739E-12
  4.9477E-12
  1.8438E-11
  2.0997E-11
  2.3556E-11
  9.2191E-12
  1.5108E-11
  2.0997E-11
  0.0000E+00
  9.2191E-12
  1.8438E-11
  6.8798E-11
  7.8349E-11
  8.7900E-11
  3.4399E-11
  5.6374E-11
  7.8349E-11
  0.0000E+00
  3.4399E-11
  6.8799E-11
  8.6164E-08
  8.6155E-08
  8.6147E-08
  8.6153E-08
  8.6154E-08
  8.6155E-08
  8.6142E-08
  8.6153E-08
  8.6164E-08
  3.4442E-07
  3.4435E-07
  3.4428E-07
  3.4450E-07
  3.4442E-07
  3.4435E-07
  3.4457E-07
  3.4450E-07
  3.4442E-07
  1.2916E-06
  1.2914E-06
  1.2912E-06
  1.2918E-06
  1.2916E-06
  1.2914E-06
  1.2921E-06
  1.2918E-06
  1.2916E-06
  4.9499E-06
  4.9496E-06
  4.9492E-06
  4.9503E-06
  4.9499E-06
  4.9496E-06
  4.9506E-06
  4.9503E-06
  4.9499E-06
  1.8274E-05
  1.8274E-05
  1.8275E-05
  1.8274E-05
  1.8274E-05
  1.8274E-05
  1.8274E-05
  1.8274E-05
  1.8274E-05
  6.7831E-05
  6.7831E-05
  6.7831E-05
  6.7830E-05
  6.7831E-05
  6.7831E-05
  6.7830E-05
  6.7830E-05
  6.7831E-05
  2.5319E-04
  2.5319E-04
  2.5319E-04
  2.5319E-04
  2.5319E-04
  2.5319E-04
  2.5319E-04
  2.5319E-04
  2.5319E-04
  9.4576E-04
  9.4576E-04
  9.4576E-04
  9.4576E-04
  9.4576E-04
  9.4576E-04
  9.4576E-04
  9.4576E-04
  9.4576E-04
  3.5327E-03
  3.5327E-03
  3.5327E-03
  3.5327E-03
  3.5327E-03
  3.5327E-03
  3.5327E-03
  3.5327E-03
  3.5327E-03
  1.3195E-02
  1.3195E-02
  1.3195E-02
  1.3195E-02
  1.3195E-02
  1.3195E-02
  1.3195E-02
  1.3195E-02
  1.3195E-02
  4.9285E-02
  4.9285E-02
  4.9285E-02
  4.9285E-02
  4.9285E-02
  4.9285E-02
  4.9285E-02
  4.9285E-02
  4.9285E-02
  1.8410E-01
  1.8410E-01
  1.8410E-01
  1.8410E-01
  1.8410E-01
  1.8410E-01
  1.8410E-01
  1.8410E-01
  1.8410E-01
  6.8743E-01
  6.8743E-01
  6.8743E-01
  6.8743E-01
  6.8743E-01
  6.8743E-01
  6.8743E-01
  6.8743E-01
  6.8743E-01
  1.0844E+00
  1.0844E+00
  1.0844E+00
  1.0844E+00
  1.0844E+00
  1.0844E+00
  1.0844E+00
  1.0844E+00
  1.0844E+00
   2.4900E-02
  1.6935E-14
  2.2870E-14
  2.8804E-14
  8.4674E-15
  1.5643E-14
  2.2818E-14
  0.0000E+00
  8.4160E-15
  1.6832E-14
  8.1885E-14
  9.6094E-14
  1.1030E-13
  4.0943E-14
  6.8503E-14
  9.6063E-14
  0.0000E+00
  4.0912E-14
  8.1823E-14
  3.8481E-13
  4.3344E-13
  4.8207E-13
  1.9241E-13
  3.1291E-13
  4.3342E-13
  0.0000E+00
  1.9239E-13
  3.8477E-13
  1.3727E-12
  1.5556E-12
  1.7385E-12
  6.8636E-13
  1.1210E-12
  1.5556E-12
  0.0000E+00
  6.8635E-13
  1.3727E-12
  4.9865E-12
  5.6851E-12
  6.3837E-12
  2.4933E-12
  4.0892E-12
  5.6851E-12
  0.0000E+00
  2.4933E-12
  4.9865E-12
  1.8693E-11
  2.1299E-11
  2.3905E-11
  9.3464E-12
  1.5323E-11
  2.1299E-11
  0.0000E+00
  9.3464E-12
  1.8693E-11
  6.9969E-11
  7.9672E-11
  8.9375E-11
  3.4984E-11
  5.7328E-11
  7.9672E-11
  0.0000E+00
  3.4984E-11
  6.9969E-11
  8.6861E-08
  8.6852E-08
  8.6843E-08
  8.6849E-08
  8.6851E-08
  8.6852E-08
  8.6838E-08
  8.6849E-08
  8.6861E-08
  3.4721E-07
  3.4713E-07
  3.4706E-07
  3.4728E-07
  3.4721E-07
  3.4713E-07
  3.4735E-07
  3.4728E-07
  3.4721E-07
  1.3020E-06
  1.3018E-06
  1.3016E-06
  1.3023E-06
  1.3020E-06
  1.3018E-06
  1.3025E-06
  1.3023E-06
  1.3020E-06
  4.9896E-06
  4.9892E-06
  4.9888E-06
  4.9899E-06
  4.9896E-06
  4.9892E-06
  4.9903E-06
  4.9899E-06
  4.9896E-06
  1.8421E-05
  1.8421E-05
  1.8421E-05
  1.8420E-05
  1.8421E-05
  1.8421E-05
  1.8420E-05
  1.8420E-05
  1.8421E-05
  6.8375E-05
  6.8375E-05
  6.8375E-05
  6.8375E-05
  6.8375E-05
  6.8375E-05
  6.8374E-05
  6.8375E-05
  6.8375E-05
  2.5523E-04
  2.5523E-04
  2.5523E-04
  2.5523E-04
  2.5523E-04
  2.5523E-04
  2.5523E-04
  2.5523E-04
  2.5523E-04
  9.5337E-04
  9.5337E-04
  9.5337E-04
  9.5337E-04
  9.5337E-04
  9.5337E-04
  9.5337E-04
  9.5337E-04
  9.5337E-04
  3.5611E-03
  3.5611E-03
  3.5611E-03
  3.5611E-03
  3.5611E-03
  3.5611E-03
  3.5611E-03
  3.5611E-03
  3.5611E-03
  1.3302E-02
  1.3302E-02
  1.3302E-02
  1.3302E-02
  1.3302E-02
  1.3302E-02
  1.3302E-02
  1.3302E-02
  1.3302E-02
  4.9682E-02
  4.9682E-02
  4.9682E-02
  4.9682E-02
  4.9682E-02
  4.9682E-02
  4.9682E-02
  4.9682E-02
  4.9682E-02
  1.8559E-01
  1.8559E-01
  1.8559E-01
  1.8559E-01
  1.8559E-01
  1.8559E-01
  1.8559E-01
  1.8559E-01
  1.8559E-01
  6.9298E-01
  6.9298E-01
  6.9298E-01
  6.9298E-01
  6.9298E-01
  6.9298E-01
  6.9298E-01
  6.9298E-01
  6.9298E-01
  1.0932E+00
  1.0932E+00
  1.0932E+00
  1.0932E+00
  1.0932E+00
  1.0932E+00
  1.0932E+00
  1.0932E+00
  1.0932E+00
   2.5000E-02
  1.7208E-14
  2.3239E-14
  2.9270E-14
  8.6039E-15
  1.5895E-14
  2.3187E-14
  0.0000E+00
  8.5521E-15
  1.7104E-14
  8.2601E-14
  9.7075E-14
  1.1155E-13
  4.1300E-14
  6.9172E-14
  9.7044E-14
  0.0000E+00
  4.1269E-14
  8.2538E-14
  3.8752E-13
  4.3718E-13
  4.8684E-13
  1.9376E-13
  3.1546E-13
  4.3716E-13
  0.0000E+00
  1.9374E-13
  3.8748E-13
  1.4197E-12
  1.6040E-12
  1.7883E-12
  7.0983E-13
  1.1569E-12
  1.6039E-12
  0.0000E+00
  7.0981E-13
  1.4196E-12
  5.1625E-12
  5.8638E-12
  6.5651E-12
  2.5813E-12
  4.2226E-12
  5.8638E-12
  0.0000E+00
  2.5813E-12
  5.1626E-12
  1.9103E-11
  2.1738E-11
  2.4374E-11
  9.5517E-12
  1.5645E-11
  2.1738E-11
  0.0000E+00
  9.5517E-12
  1.9103E-11
  7.1126E-11
  8.0980E-11
  9.0834E-11
  3.5563E-11
  5.8272E-11
  8.0980E-11
  0.0000E+00
  3.5563E-11
  7.1126E-11
  8.7560E-08
  8.7551E-08
  8.7542E-08
  8.7548E-08
  8.7550E-08
  8.7551E-08
  8.7537E-08
  8.7548E-08
  8.7560E-08
  3.5000E-07
  3.4992E-07
  3.4985E-07
  3.5007E-07
  3.5000E-07
  3.4992E-07
  3.5015E-07
  3.5007E-07
  3.5000E-07
  1.3125E-06
  1.3123E-06
  1.3120E-06
  1.3127E-06
  1.3125E-06
  1.3123E-06
  1.3130E-06
  1.3127E-06
  1.3125E-06
  5.0293E-06
  5.0290E-06
  5.0286E-06
  5.0297E-06
  5.0293E-06
  5.0290E-06
  5.0300E-06
  5.0297E-06
  5.0293E-06
  1.8567E-05
  1.8568E-05
  1.8568E-05
  1.8567E-05
  1.8567E-05
  1.8568E-05
  1.8567E-05
  1.8567E-05
  1.8567E-05
  6.8921E-05
  6.8922E-05
  6.8922E-05
  6.8921E-05
  6.8921E-05
  6.8922E-05
  6.8921E-05
  6.8921E-05
  6.8921E-05
  2.5727E-04
  2.5727E-04
  2.5727E-04
  2.5727E-04
  2.5727E-04
  2.5727E-04
  2.5727E-04
  2.5727E-04
  2.5727E-04
  9.6101E-04
  9.6101E-04
  9.6101E-04
  9.6101E-04
  9.6101E-04
  9.6101E-04
  9.6101E-04
  9.6101E-04
  9.6101E-04
  3.5897E-03
  3.5897E-03
  3.5897E-03
  3.5897E-03
  3.5897E-03
  3.5897E-03
  3.5897E-03
  3.5897E-03
  3.5897E-03
  1.3408E-02
  1.3408E-02
  1.3408E-02
  1.3408E-02
  1.3408E-02
  1.3408E-02
  1.3408E-02
  1.3408E-02
  1.3408E-02
  5.0081E-02
  5.0081E-02
  5.0081E-02
  5.0081E-02
  5.0081E-02
  5.0081E-02
  5.0081E-02
  5.0081E-02
  5.0081E-02
  1.8708E-01
  1.8708E-01
  1.8708E-01
  1.8708E-01
  1.8708E-01
  1.8708E-01
  1.8708E-01
  1.8708E-01
  1.8708E-01
  6.9855E-01
  6.9855E-01
  6.9855E-01
  6.9855E-01
  6.9855E-01
  6.9855E-01
  6.9855E-01
  6.9855E-01
  6.9855E-01
  1.1020E+00
  1.1020E+00
  1.1020E+00
  1.1020E+00
  1.1020E+00
  1.1020E+00
  1.1020E+00
  1.1020E+00
  1.1020E+00
   2.5100E-02
  1.7484E-14
  2.3612E-14
  2.9740E-14
  8.7420E-15
  1.6151E-14
  2.3560E-14
  0.0000E+00
  8.6898E-15
  1.7380E-14
  8.3326E-14
  9.8070E-14
  1.1281E-13
  4.1663E-14
  6.9851E-14
  9.8039E-14
  0.0000E+00
  4.1632E-14
  8.3263E-14
  3.9028E-13
  4.4098E-13
  4.9169E-13
  1.9514E-13
  3.1805E-13
  4.4096E-13
  0.0000E+00
  1.9512E-13
  3.9023E-13
  1.4301E-12
  1.6184E-12
  1.8067E-12
  7.1507E-13
  1.1667E-12
  1.6184E-12
  0.0000E+00
  7.1505E-13
  1.4301E-12
  5.2021E-12
  5.9183E-12
  6.6346E-12
  2.6010E-12
  4.2597E-12
  5.9183E-12
  0.0000E+00
  2.6011E-12
  5.2021E-12
  1.9361E-11
  2.2045E-11
  2.4728E-11
  9.6806E-12
  1.5863E-11
  2.2045E-11
  0.0000E+00
  9.6807E-12
  1.9361E-11
  7.2236E-11
  8.2253E-11
  9.2269E-11
  3.6118E-11
  5.9186E-11
  8.2253E-11
  0.0000E+00
  3.6118E-11
  7.2237E-11
  8.8262E-08
  8.8253E-08
  8.8244E-08
  8.8250E-08
  8.8252E-08
  8.8253E-08
  8.8239E-08
  8.8250E-08
  8.8262E-08
  3.5280E-07
  3.5273E-07
  3.5265E-07
  3.5288E-07
  3.5280E-07
  3.5273E-07
  3.5295E-07
  3.5288E-07
  3.5280E-07
  1.3230E-06
  1.3228E-06
  1.3226E-06
  1.3232E-06
  1.3230E-06
  1.3228E-06
  1.3235E-06
  1.3232E-06
  1.3230E-06
  5.0693E-06
  5.0689E-06
  5.0685E-06
  5.0696E-06
  5.0693E-06
  5.0689E-06
  5.0700E-06
  5.0696E-06
  5.0693E-06
  1.8715E-05
  1.8715E-05
  1.8715E-05
  1.8715E-05
  1.8715E-05
  1.8715E-05
  1.8715E-05
  1.8715E-05
  1.8715E-05
  6.9470E-05
  6.9470E-05
  6.9471E-05
  6.9470E-05
  6.9470E-05
  6.9470E-05
  6.9470E-05
  6.9470E-05
  6.9470E-05
  2.5932E-04
  2.5932E-04
  2.5932E-04
  2.5932E-04
  2.5932E-04
  2.5932E-04
  2.5932E-04
  2.5932E-04
  2.5932E-04
  9.6867E-04
  9.6867E-04
  9.6867E-04
  9.6867E-04
  9.6867E-04
  9.6867E-04
  9.6867E-04
  9.6867E-04
  9.6867E-04
  3.6183E-03
  3.6183E-03
  3.6183E-03
  3.6183E-03
  3.6183E-03
  3.6183E-03
  3.6183E-03
  3.6183E-03
  3.6183E-03
  1.3515E-02
  1.3515E-02
  1.3515E-02
  1.3515E-02
  1.3515E-02
  1.3515E-02
  1.3515E-02
  1.3515E-02
  1.3515E-02
  5.0482E-02
  5.0482E-02
  5.0482E-02
  5.0482E-02
  5.0482E-02
  5.0482E-02
  5.0482E-02
  5.0482E-02
  5.0482E-02
  1.8858E-01
  1.8858E-01
  1.8858E-01
  1.8858E-01
  1.8858E-01
  1.8858E-01
  1.8858E-01
  1.8858E-01
  1.8858E-01
  7.0415E-01
  7.0415E-01
  7.0415E-01
  7.0415E-01
  7.0415E-01
  7.0415E-01
  7.0415E-01
  7.0415E-01
  7.0415E-01
  1.1108E+00
  1.1108E+00
  1.1108E+00
  1.1108E+00
  1.1108E+00
  1.1108E+00
  1.1108E+00
  1.1108E+00
  1.1108E+00
   2.5200E-02
  1.7764E-14
  2.3990E-14
  3.0217E-14
  8.8819E-15
  1.6410E-14
  2.3938E-14
  0.0000E+00
  8.8292E-15
  1.7658E-14
  8.4063E-14
  9.9080E-14
  1.1410E-13
  4.2031E-14
  7.0540E-14
  9.9048E-14
  0.0000E+00
  4.2000E-14
  8.3999E-14
  3.9307E-13
  4.4484E-13
  4.9661E-13
  1.9654E-13
  3.2068E-13
  4.4482E-13
  0.0000E+00
  1.9652E-13
  3.9303E-13
  1.4408E-12
  1.6331E-12
  1.8254E-12
  7.2039E-13
  1.1767E-12
  1.6331E-12
  0.0000E+00
  7.2037E-13
  1.4407E-12
  5.2423E-12
  5.9737E-12
  6.7051E-12
  2.6211E-12
  4.2974E-12
  5.9737E-12
  0.0000E+00
  2.6211E-12
  5.2423E-12
  1.9584E-11
  2.2319E-11
  2.5055E-11
  9.7922E-12
  1.6056E-11
  2.2320E-11
  0.0000E+00
  9.7923E-12
  1.9585E-11
  7.3289E-11
  8.3478E-11
  9.3666E-11
  3.6645E-11
  6.0061E-11
  8.3478E-11
  0.0000E+00
  3.6645E-11
  7.3290E-11
  8.8967E-08
  8.8958E-08
  8.8948E-08
  8.8955E-08
  8.8956E-08
  8.8958E-08
  8.8943E-08
  8.8955E-08
  8.8967E-08
  3.5562E-07
  3.5554E-07
  3.5546E-07
  3.5570E-07
  3.5562E-07
  3.5554E-07
  3.5577E-07
  3.5570E-07
  3.5562E-07
  1.3336E-06
  1.3333E-06
  1.3331E-06
  1.3338E-06
  1.3336E-06
  1.3333E-06
  1.3340E-06
  1.3338E-06
  1.3336E-06
  5.1093E-06
  5.1090E-06
  5.1086E-06
  5.1097E-06
  5.1093E-06
  5.1090E-06
  5.1101E-06
  5.1097E-06
  5.1093E-06
  1.8863E-05
  1.8863E-05
  1.8863E-05
  1.8863E-05
  1.8863E-05
  1.8863E-05
  1.8863E-05
  1.8863E-05
  1.8863E-05
  7.0021E-05
  7.0021E-05
  7.0021E-05
  7.0021E-05
  7.0021E-05
  7.0021E-05
  7.0020E-05
  7.0021E-05
  7.0021E-05
  2.6138E-04
  2.6138E-04
  2.6138E-04
  2.6138E-04
  2.6138E-04
  2.6138E-04
  2.6138E-04
  2.6138E-04
  2.6138E-04
  9.7637E-04
  9.7637E-04
  9.7637E-04
  9.7637E-04
  9.7637E-04
  9.7637E-04
  9.7637E-04
  9.7637E-04
  9.7637E-04
  3.6471E-03
  3.6471E-03
  3.6471E-03
  3.6471E-03
  3.6471E-03
  3.6471E-03
  3.6471E-03
  3.6471E-03
  3.6471E-03
  1.3623E-02
  1.3623E-02
  1.3623E-02
  1.3623E-02
  1.3623E-02
  1.3623E-02
  1.3623E-02
  1.3623E-02
  1.3623E-02
  5.0884E-02
  5.0884E-02
  5.0884E-02
  5.0884E-02
  5.0884E-02
  5.0884E-02
  5.0884E-02
  5.0884E-02
  5.0884E-02
  1.9008E-01
  1.9008E-01
  1.9008E-01
  1.9008E-01
  1.9008E-01
  1.9008E-01
  1.9008E-01
  1.9008E-01
  1.9008E-01
  7.0976E-01
  7.0976E-01
  7.0976E-01
  7.0976E-01
  7.0976E-01
  7.0976E-01
  7.0976E-01
  7.0976E-01
  7.0976E-01
  1.1196E+00
  1.1196E+00
  1.1196E+00
  1.1196E+00
  1.1196E+00
  1.1196E+00
  1.1196E+00
  1.1196E+00
  1.1196E+00
   2.5300E-02
  1.8047E-14
  2.4373E-14
  3.0699E-14
  9.0233E-15
  1.6672E-14
  2.4320E-14
  0.0000E+00
  8.9703E-15
  1.7941E-14
  8.4810E-14
  1.0010E-13
  1.1540E-13
  4.2405E-14
  7.1239E-14
  1.0007E-13
  0.0000E+00
  4.2373E-14
  8.4746E-14
  3.9591E-13
  4.4876E-13
  5.0160E-13
  1.9796E-13
  3.2335E-13
  4.4874E-13
  0.0000E+00
  1.9794E-13
  3.9587E-13
  1.4516E-12
  1.6480E-12
  1.8444E-12
  7.2579E-13
  1.1869E-12
  1.6480E-12
  0.0000E+00
  7.2577E-13
  1.4515E-12
  5.3561E-12
  6.0978E-12
  6.8395E-12
  2.6780E-12
  4.3879E-12
  6.0978E-12
  0.0000E+00
  2.6781E-12
  5.3561E-12
  1.9973E-11
  2.2744E-11
  2.5515E-11
  9.9867E-12
  1.6365E-11
  2.2744E-11
  0.0000E+00
  9.9867E-12
  1.9973E-11
  7.4540E-11
  8.4882E-11
  9.5224E-11
  3.7270E-11
  6.1076E-11
  8.4882E-11
  0.0000E+00
  3.7270E-11
  7.4540E-11
  8.9674E-08
  8.9665E-08
  8.9656E-08
  8.9662E-08
  8.9664E-08
  8.9665E-08
  8.9650E-08
  8.9662E-08
  8.9674E-08
  3.5845E-07
  3.5837E-07
  3.5829E-07
  3.5852E-07
  3.5845E-07
  3.5837E-07
  3.5860E-07
  3.5852E-07
  3.5845E-07
  1.3442E-06
  1.3439E-06
  1.3437E-06
  1.3444E-06
  1.3442E-06
  1.3439E-06
  1.3446E-06
  1.3444E-06
  1.3442E-06
  5.1496E-06
  5.1492E-06
  5.1489E-06
  5.1499E-06
  5.1496E-06
  5.1492E-06
  5.1503E-06
  5.1499E-06
  5.1496E-06
  1.9011E-05
  1.9012E-05
  1.9012E-05
  1.9011E-05
  1.9011E-05
  1.9012E-05
  1.9011E-05
  1.9011E-05
  1.9011E-05
  7.0574E-05
  7.0574E-05
  7.0574E-05
  7.0573E-05
  7.0574E-05
  7.0574E-05
  7.0573E-05
  7.0573E-05
  7.0574E-05
  2.6344E-04
  2.6344E-04
  2.6344E-04
  2.6344E-04
  2.6344E-04
  2.6344E-04
  2.6344E-04
  2.6344E-04
  2.6344E-04
  9.8409E-04
  9.8409E-04
  9.8409E-04
  9.8409E-04
  9.8409E-04
  9.8409E-04
  9.8409E-04
  9.8409E-04
  9.8409E-04
  3.6760E-03
  3.6760E-03
  3.6760E-03
  3.6760E-03
  3.6760E-03
  3.6760E-03
  3.6760E-03
  3.6760E-03
  3.6760E-03
  1.3731E-02
  1.3731E-02
  1.3731E-02
  1.3731E-02
  1.3731E-02
  1.3731E-02
  1.3731E-02
  1.3731E-02
  1.3731E-02
  5.1287E-02
  5.1287E-02
  5.1287E-02
  5.1287E-02
  5.1287E-02
  5.1287E-02
  5.1287E-02
  5.1287E-02
  5.1287E-02
  1.9159E-01
  1.9159E-01
  1.9159E-01
  1.9159E-01
  1.9159E-01
  1.9159E-01
  1.9159E-01
  1.9159E-01
  1.9159E-01
  7.1540E-01
  7.1540E-01
  7.1540E-01
  7.1540E-01
  7.1540E-01
  7.1540E-01
  7.1540E-01
  7.1540E-01
  7.1540E-01
  1.1285E+00
  1.1285E+00
  1.1285E+00
  1.1285E+00
  1.1285E+00
  1.1285E+00
  1.1285E+00
  1.1285E+00
  1.1285E+00
   2.5400E-02
  1.8333E-14
  2.4760E-14
  3.1187E-14
  9.1665E-15
  1.6937E-14
  2.4707E-14
  0.0000E+00
  9.1130E-15
  1.8226E-14
  8.5568E-14
  1.0114E-13
  1.1672E-13
  4.2784E-14
  7.1947E-14
  1.0111E-13
  0.0000E+00
  4.2752E-14
  8.5503E-14
  3.9880E-13
  4.5274E-13
  5.0668E-13
  1.9940E-13
  3.2606E-13
  4.5272E-13
  0.0000E+00
  1.9938E-13
  3.9876E-13
  1.4992E-12
  1.6972E-12
  1.8952E-12
  7.4958E-13
  1.2234E-12
  1.6972E-12
  0.0000E+00
  7.4957E-13
  1.4991E-12
  5.4609E-12
  6.2111E-12
  6.9613E-12
  2.7305E-12
  4.4708E-12
  6.2111E-12
  0.0000E+00
  2.7305E-12
  5.4610E-12
  2.0264E-11
  2.3080E-11
  2.5897E-11
  1.0132E-11
  1.6606E-11
  2.3080E-11
  0.0000E+00
  1.0132E-11
  2.0264E-11
  7.5670E-11
  8.6182E-11
  9.6694E-11
  3.7835E-11
  6.2009E-11
  8.6182E-11
  0.0000E+00
  3.7835E-11
  7.5671E-11
  9.0385E-08
  9.0375E-08
  9.0366E-08
  9.0373E-08
  9.0374E-08
  9.0375E-08
  9.0360E-08
  9.0373E-08
  9.0385E-08
  3.6128E-07
  3.6120E-07
  3.6112E-07
  3.6136E-07
  3.6128E-07
  3.6120E-07
  3.6144E-07
  3.6136E-07
  3.6128E-07
  1.3548E-06
  1.3546E-06
  1.3543E-06
  1.3550E-06
  1.3548E-06
  1.3546E-06
  1.3553E-06
  1.3550E-06
  1.3548E-06
  5.1900E-06
  5.1896E-06
  5.1893E-06
  5.1903E-06
  5.1900E-06
  5.1896E-06
  5.1907E-06
  5.1903E-06
  5.1900E-06
  1.9161E-05
  1.9161E-05
  1.9161E-05
  1.9160E-05
  1.9161E-05
  1.9161E-05
  1.9160E-05
  1.9160E-05
  1.9161E-05
  7.1129E-05
  7.1129E-05
  7.1129E-05
  7.1129E-05
  7.1129E-05
  7.1129E-05
  7.1128E-05
  7.1129E-05
  7.1129E-05
  2.6552E-04
  2.6552E-04
  2.6552E-04
  2.6552E-04
  2.6552E-04
  2.6552E-04
  2.6552E-04
  2.6552E-04
  2.6552E-04
  9.9185E-04
  9.9185E-04
  9.9185E-04
  9.9185E-04
  9.9185E-04
  9.9185E-04
  9.9185E-04
  9.9185E-04
  9.9185E-04
  3.7050E-03
  3.7050E-03
  3.7050E-03
  3.7050E-03
  3.7050E-03
  3.7050E-03
  3.7050E-03
  3.7050E-03
  3.7050E-03
  1.3839E-02
  1.3839E-02
  1.3839E-02
  1.3839E-02
  1.3839E-02
  1.3839E-02
  1.3839E-02
  1.3839E-02
  1.3839E-02
  5.1693E-02
  5.1693E-02
  5.1693E-02
  5.1693E-02
  5.1693E-02
  5.1693E-02
  5.1693E-02
  5.1693E-02
  5.1693E-02
  1.9310E-01
  1.9310E-01
  1.9310E-01
  1.9310E-01
  1.9310E-01
  1.9310E-01
  1.9310E-01
  1.9310E-01
  1.9310E-01
  7.2106E-01
  7.2106E-01
  7.2106E-01
  7.2106E-01
  7.2106E-01
  7.2106E-01
  7.2106E-01
  7.2106E-01
  7.2106E-01
  1.1375E+00
  1.1375E+00
  1.1375E+00
  1.1375E+00
  1.1375E+00
  1.1375E+00
  1.1375E+00
  1.1375E+00
  1.1375E+00
   2.5500E-02
  1.8623E-14
  2.5152E-14
  3.1681E-14
  9.3113E-15
  1.7205E-14
  2.5098E-14
  0.0000E+00
  9.2574E-15
  1.8515E-14
  8.6336E-14
  1.0220E-13
  1.1806E-13
  4.3168E-14
  7.2667E-14
  1.0216E-13
  0.0000E+00
  4.3136E-14
  8.6272E-14
  4.0173E-13
  4.5678E-13
  5.1183E-13
  2.0086E-13
  3.2881E-13
  4.5676E-13
  0.0000E+00
  2.0084E-13
  4.0169E-13
  1.5102E-12
  1.7124E-12
  1.9146E-12
  7.5509E-13
  1.2337E-12
  1.7124E-12
  0.0000E+00
  7.5508E-13
  1.5102E-12
  5.5757E-12
  6.3366E-12
  7.0974E-12
  2.7879E-12
  4.5622E-12
  6.3366E-12
  0.0000E+00
  2.7879E-12
  5.5757E-12
  2.0656E-11
  2.3510E-11
  2.6363E-11
  1.0328E-11
  1.6919E-11
  2.3510E-11
  0.0000E+00
  1.0328E-11
  2.0656E-11
  7.6935E-11
  8.7605E-11
  9.8275E-11
  3.8467E-11
  6.3036E-11
  8.7605E-11
  0.0000E+00
  3.8467E-11
  7.6935E-11
  9.1098E-08
  9.1089E-08
  9.1079E-08
  9.1086E-08
  9.1087E-08
  9.1089E-08
  9.1073E-08
  9.1086E-08
  9.1098E-08
  3.6413E-07
  3.6405E-07
  3.6397E-07
  3.6421E-07
  3.6413E-07
  3.6405E-07
  3.6429E-07
  3.6421E-07
  3.6413E-07
  1.3655E-06
  1.3652E-06
  1.3650E-06
  1.3657E-06
  1.3655E-06
  1.3652E-06
  1.3660E-06
  1.3657E-06
  1.3655E-06
  5.2305E-06
  5.2302E-06
  5.2298E-06
  5.2309E-06
  5.2305E-06
  5.2302E-06
  5.2313E-06
  5.2309E-06
  5.2305E-06
  1.9310E-05
  1.9310E-05
  1.9310E-05
  1.9310E-05
  1.9310E-05
  1.9310E-05
  1.9310E-05
  1.9310E-05
  1.9310E-05
  7.1686E-05
  7.1686E-05
  7.1686E-05
  7.1686E-05
  7.1686E-05
  7.1686E-05
  7.1685E-05
  7.1686E-05
  7.1686E-05
  2.6760E-04
  2.6760E-04
  2.6760E-04
  2.6760E-04
  2.6760E-04
  2.6760E-04
  2.6760E-04
  2.6760E-04
  2.6760E-04
  9.9963E-04
  9.9963E-04
  9.9963E-04
  9.9963E-04
  9.9963E-04
  9.9963E-04
  9.9963E-04
  9.9963E-04
  9.9963E-04
  3.7341E-03
  3.7341E-03
  3.7341E-03
  3.7341E-03
  3.7341E-03
  3.7341E-03
  3.7341E-03
  3.7341E-03
  3.7341E-03
  1.3948E-02
  1.3948E-02
  1.3948E-02
  1.3948E-02
  1.3948E-02
  1.3948E-02
  1.3948E-02
  1.3948E-02
  1.3948E-02
  5.2099E-02
  5.2099E-02
  5.2099E-02
  5.2099E-02
  5.2099E-02
  5.2099E-02
  5.2099E-02
  5.2099E-02
  5.2099E-02
  1.9463E-01
  1.9463E-01
  1.9463E-01
  1.9463E-01
  1.9463E-01
  1.9463E-01
  1.9463E-01
  1.9463E-01
  1.9463E-01
  7.2675E-01
  7.2675E-01
  7.2675E-01
  7.2675E-01
  7.2675E-01
  7.2675E-01
  7.2675E-01
  7.2675E-01
  7.2675E-01
  1.1464E+00
  1.1464E+00
  1.1464E+00
  1.1464E+00
  1.1464E+00
  1.1464E+00
  1.1464E+00
  1.1464E+00
  1.1464E+00
   2.5600E-02
  1.8916E-14
  2.5548E-14
  3.2180E-14
  9.4579E-15
  1.7476E-14
  2.5494E-14
  0.0000E+00
  9.4036E-15
  1.8807E-14
  8.7116E-14
  1.0327E-13
  1.1942E-13
  4.3558E-14
  7.3396E-14
  1.0323E-13
  0.0000E+00
  4.3526E-14
  8.7051E-14
  4.0470E-13
  4.6088E-13
  5.1705E-13
  2.0235E-13
  3.3160E-13
  4.6086E-13
  0.0000E+00
  2.0233E-13
  4.0466E-13
  1.5214E-12
  1.7278E-12
  1.9343E-12
  7.6069E-13
  1.2443E-12
  1.7278E-12
  0.0000E+00
  7.6067E-13
  1.5213E-12
  5.6177E-12
  6.3944E-12
  7.1711E-12
  2.8089E-12
  4.6016E-12
  6.3944E-12
  0.0000E+00
  2.8089E-12
  5.6177E-12
  2.0923E-11
  2.3828E-11
  2.6734E-11
  1.0462E-11
  1.7145E-11
  2.3828E-11
  0.0000E+00
  1.0462E-11
  2.0923E-11
  7.8152E-11
  8.8992E-11
  9.9832E-11
  3.9076E-11
  6.4034E-11
  8.8992E-11
  0.0000E+00
  3.9076E-11
  7.8152E-11
  9.1814E-08
  9.1805E-08
  9.1795E-08
  9.1802E-08
  9.1803E-08
  9.1805E-08
  9.1789E-08
  9.1802E-08
  9.1814E-08
  3.6699E-07
  3.6691E-07
  3.6683E-07
  3.6707E-07
  3.6699E-07
  3.6691E-07
  3.6716E-07
  3.6707E-07
  3.6699E-07
  1.3762E-06
  1.3760E-06
  1.3757E-06
  1.3764E-06
  1.3762E-06
  1.3760E-06
  1.3767E-06
  1.3764E-06
  1.3762E-06
  5.2713E-06
  5.2709E-06
  5.2705E-06
  5.2716E-06
  5.2713E-06
  5.2709E-06
  5.2720E-06
  5.2716E-06
  5.2713E-06
  1.9460E-05
  1.9461E-05
  1.9461E-05
  1.9460E-05
  1.9460E-05
  1.9461E-05
  1.9460E-05
  1.9460E-05
  1.9460E-05
  7.2245E-05
  7.2245E-05
  7.2246E-05
  7.2245E-05
  7.2245E-05
  7.2245E-05
  7.2245E-05
  7.2245E-05
  7.2245E-05
  2.6969E-04
  2.6969E-04
  2.6969E-04
  2.6969E-04
  2.6969E-04
  2.6969E-04
  2.6969E-04
  2.6969E-04
  2.6969E-04
  1.0074E-03
  1.0074E-03
  1.0074E-03
  1.0074E-03
  1.0074E-03
  1.0074E-03
  1.0074E-03
  1.0074E-03
  1.0074E-03
  3.7633E-03
  3.7633E-03
  3.7633E-03
  3.7633E-03
  3.7633E-03
  3.7633E-03
  3.7633E-03
  3.7633E-03
  3.7633E-03
  1.4057E-02
  1.4057E-02
  1.4057E-02
  1.4057E-02
  1.4057E-02
  1.4057E-02
  1.4057E-02
  1.4057E-02
  1.4057E-02
  5.2508E-02
  5.2508E-02
  5.2508E-02
  5.2508E-02
  5.2508E-02
  5.2508E-02
  5.2508E-02
  5.2508E-02
  5.2508E-02
  1.9615E-01
  1.9615E-01
  1.9615E-01
  1.9615E-01
  1.9615E-01
  1.9615E-01
  1.9615E-01
  1.9615E-01
  1.9615E-01
  7.3245E-01
  7.3245E-01
  7.3245E-01
  7.3245E-01
  7.3245E-01
  7.3245E-01
  7.3245E-01
  7.3245E-01
  7.3245E-01
  1.1554E+00
  1.1554E+00
  1.1554E+00
  1.1554E+00
  1.1554E+00
  1.1554E+00
  1.1554E+00
  1.1554E+00
  1.1554E+00
   2.5700E-02
  1.9212E-14
  2.5949E-14
  3.2686E-14
  9.6062E-15
  1.7750E-14
  2.5894E-14
  0.0000E+00
  9.5514E-15
  1.9103E-14
  8.7907E-14
  1.0435E-13
  1.2079E-13
  4.3954E-14
  7.4135E-14
  1.0432E-13
  0.0000E+00
  4.3921E-14
  8.7842E-14
  4.0773E-13
  4.6504E-13
  5.2236E-13
  2.0386E-13
  3.3444E-13
  4.6502E-13
  0.0000E+00
  2.0384E-13
  4.0768E-13
  1.5327E-12
  1.7435E-12
  1.9542E-12
  7.6637E-13
  1.2549E-12
  1.7435E-12
  0.0000E+00
  7.6636E-13
  1.5327E-12
  5.6603E-12
  6.4532E-12
  7.2460E-12
  2.8302E-12
  4.6417E-12
  6.4532E-12
  0.0000E+00
  2.8302E-12
  5.6604E-12
  2.1192E-11
  2.4150E-11
  2.7108E-11
  1.0596E-11
  1.7373E-11
  2.4150E-11
  0.0000E+00
  1.0596E-11
  2.1192E-11
  7.9302E-11
  9.0320E-11
  1.0134E-10
  3.9651E-11
  6.4986E-11
  9.0320E-11
  0.0000E+00
  3.9651E-11
  7.9303E-11
  9.2533E-08
  9.2523E-08
  9.2513E-08
  9.2520E-08
  9.2522E-08
  9.2523E-08
  9.2508E-08
  9.2520E-08
  9.2533E-08
  3.6986E-07
  3.6978E-07
  3.6970E-07
  3.6995E-07
  3.6986E-07
  3.6978E-07
  3.7003E-07
  3.6995E-07
  3.6986E-07
  1.3870E-06
  1.3867E-06
  1.3865E-06
  1.3872E-06
  1.3870E-06
  1.3867E-06
  1.3875E-06
  1.3872E-06
  1.3870E-06
  5.3121E-06
  5.3118E-06
  5.3114E-06
  5.3125E-06
  5.3121E-06
  5.3118E-06
  5.3128E-06
  5.3125E-06
  5.3121E-06
  1.9611E-05
  1.9611E-05
  1.9612E-05
  1.9611E-05
  1.9611E-05
  1.9611E-05
  1.9611E-05
  1.9611E-05
  1.9611E-05
  7.2807E-05
  7.2807E-05
  7.2807E-05
  7.2806E-05
  7.2807E-05
  7.2807E-05
  7.2806E-05
  7.2806E-05
  7.2807E-05
  2.7179E-04
  2.7179E-04
  2.7179E-04
  2.7179E-04
  2.7179E-04
  2.7179E-04
  2.7179E-04
  2.7179E-04
  2.7179E-04
  1.0153E-03
  1.0153E-03
  1.0153E-03
  1.0153E-03
  1.0153E-03
  1.0153E-03
  1.0153E-03
  1.0153E-03
  1.0153E-03
  3.7926E-03
  3.7926E-03
  3.7926E-03
  3.7926E-03
  3.7926E-03
  3.7926E-03
  3.7926E-03
  3.7926E-03
  3.7926E-03
  1.4167E-02
  1.4167E-02
  1.4167E-02
  1.4167E-02
  1.4167E-02
  1.4167E-02
  1.4167E-02
  1.4167E-02
  1.4167E-02
  5.2918E-02
  5.2918E-02
  5.2918E-02
  5.2918E-02
  5.2918E-02
  5.2918E-02
  5.2918E-02
  5.2918E-02
  5.2918E-02
  1.9769E-01
  1.9769E-01
  1.9769E-01
  1.9769E-01
  1.9769E-01
  1.9769E-01
  1.9769E-01
  1.9769E-01
  1.9769E-01
  7.3818E-01
  7.3818E-01
  7.3818E-01
  7.3818E-01
  7.3818E-01
  7.3818E-01
  7.3818E-01
  7.3818E-01
  7.3818E-01
  1.1645E+00
  1.1645E+00
  1.1645E+00
  1.1645E+00
  1.1645E+00
  1.1645E+00
  1.1645E+00
  1.1645E+00
  1.1645E+00
   2.5800E-02
  1.9512E-14
  2.6355E-14
  3.3197E-14
  9.7562E-15
  1.8028E-14
  2.6300E-14
  0.0000E+00
  9.7010E-15
  1.9402E-14
  8.8710E-14
  1.0545E-13
  1.2219E-13
  4.4355E-14
  7.4885E-14
  1.0542E-13
  0.0000E+00
  4.4322E-14
  8.8643E-14
  4.1079E-13
  4.6927E-13
  5.2774E-13
  2.0540E-13
  3.3732E-13
  4.6925E-13
  0.0000E+00
  2.0538E-13
  4.1075E-13
  1.5443E-12
  1.7594E-12
  1.9745E-12
  7.7214E-13
  1.2658E-12
  1.7594E-12
  0.0000E+00
  7.7213E-13
  1.5443E-12
  5.7767E-12
  6.5807E-12
  7.3848E-12
  2.8883E-12
  4.7345E-12
  6.5807E-12
  0.0000E+00
  2.8883E-12
  5.7767E-12
  2.1590E-11
  2.4587E-11
  2.7584E-11
  1.0795E-11
  1.7691E-11
  2.4587E-11
  0.0000E+00
  1.0795E-11
  2.1590E-11
  8.0587E-11
  9.1771E-11
  1.0296E-10
  4.0294E-11
  6.6033E-11
  9.1772E-11
  0.0000E+00
  4.0294E-11
  8.0588E-11
  9.3255E-08
  9.3245E-08
  9.3235E-08
  9.3242E-08
  9.3243E-08
  9.3245E-08
  9.3229E-08
  9.3242E-08
  9.3255E-08
  3.7275E-07
  3.7266E-07
  3.7258E-07
  3.7283E-07
  3.7275E-07
  3.7266E-07
  3.7292E-07
  3.7283E-07
  3.7275E-07
  1.3978E-06
  1.3975E-06
  1.3973E-06
  1.3980E-06
  1.3978E-06
  1.3975E-06
  1.3983E-06
  1.3980E-06
  1.3978E-06
  5.3531E-06
  5.3528E-06
  5.3524E-06
  5.3535E-06
  5.3531E-06
  5.3528E-06
  5.3538E-06
  5.3535E-06
  5.3531E-06
  1.9763E-05
  1.9763E-05
  1.9763E-05
  1.9763E-05
  1.9763E-05
  1.9763E-05
  1.9762E-05
  1.9763E-05
  1.9763E-05
  7.3370E-05
  7.3370E-05
  7.3371E-05
  7.3370E-05
  7.3370E-05
  7.3370E-05
  7.3370E-05
  7.3370E-05
  7.3370E-05
  2.7389E-04
  2.7389E-04
  2.7389E-04
  2.7389E-04
  2.7389E-04
  2.7389E-04
  2.7389E-04
  2.7389E-04
  2.7389E-04
  1.0232E-03
  1.0232E-03
  1.0232E-03
  1.0232E-03
  1.0232E-03
  1.0232E-03
  1.0232E-03
  1.0232E-03
  1.0232E-03
  3.8221E-03
  3.8221E-03
  3.8221E-03
  3.8221E-03
  3.8221E-03
  3.8221E-03
  3.8220E-03
  3.8221E-03
  3.8221E-03
  1.4277E-02
  1.4277E-02
  1.4277E-02
  1.4277E-02
  1.4277E-02
  1.4277E-02
  1.4277E-02
  1.4277E-02
  1.4277E-02
  5.3329E-02
  5.3329E-02
  5.3329E-02
  5.3329E-02
  5.3329E-02
  5.3329E-02
  5.3329E-02
  5.3329E-02
  5.3329E-02
  1.9923E-01
  1.9923E-01
  1.9923E-01
  1.9923E-01
  1.9923E-01
  1.9923E-01
  1.9923E-01
  1.9923E-01
  1.9923E-01
  7.4393E-01
  7.4393E-01
  7.4393E-01
  7.4393E-01
  7.4393E-01
  7.4393E-01
  7.4393E-01
  7.4393E-01
  7.4393E-01
  1.1735E+00
  1.1735E+00
  1.1735E+00
  1.1735E+00
  1.1735E+00
  1.1735E+00
  1.1735E+00
  1.1735E+00
  1.1735E+00
   2.5900E-02
  1.9816E-14
  2.6765E-14
  3.3714E-14
  9.9080E-15
  1.8309E-14
  2.6710E-14
  0.0000E+00
  9.8524E-15
  1.9705E-14
  8.9523E-14
  1.0656E-13
  1.2360E-13
  4.4762E-14
  7.5646E-14
  1.0653E-13
  0.0000E+00
  4.4728E-14
  8.9456E-14
  4.1391E-13
  4.7356E-13
  5.3320E-13
  2.0695E-13
  3.4024E-13
  4.7353E-13
  0.0000E+00
  2.0693E-13
  4.1386E-13
  1.5926E-12
  1.8096E-12
  2.0265E-12
  7.9628E-13
  1.3029E-12
  1.8095E-12
  0.0000E+00
  7.9626E-13
  1.5925E-12
  5.8840E-12
  6.6974E-12
  7.5108E-12
  2.9420E-12
  4.8197E-12
  6.6974E-12
  0.0000E+00
  2.9420E-12
  5.8840E-12
  2.1927E-11
  2.4970E-11
  2.8014E-11
  1.0963E-11
  1.7967E-11
  2.4970E-11
  0.0000E+00
  1.0963E-11
  2.1927E-11
  8.1889E-11
  9.3244E-11
  1.0460E-10
  4.0945E-11
  6.7094E-11
  9.3244E-11
  0.0000E+00
  4.0945E-11
  8.1889E-11
  9.3979E-08
  9.3969E-08
  9.3959E-08
  9.3966E-08
  9.3968E-08
  9.3969E-08
  9.3953E-08
  9.3966E-08
  9.3979E-08
  3.7564E-07
  3.7555E-07
  3.7547E-07
  3.7573E-07
  3.7564E-07
  3.7555E-07
  3.7581E-07
  3.7573E-07
  3.7564E-07
  1.4086E-06
  1.4084E-06
  1.4081E-06
  1.4088E-06
  1.4086E-06
  1.4084E-06
  1.4091E-06
  1.4088E-06
  1.4086E-06
  5.3943E-06
  5.3939E-06
  5.3936E-06
  5.3946E-06
  5.3943E-06
  5.3939E-06
  5.3950E-06
  5.3946E-06
  5.3943E-06
  1.9915E-05
  1.9915E-05
  1.9915E-05
  1.9915E-05
  1.9915E-05
  1.9915E-05
  1.9914E-05
  1.9915E-05
  1.9915E-05
  7.3936E-05
  7.3936E-05
  7.3936E-05
  7.3935E-05
  7.3936E-05
  7.3936E-05
  7.3935E-05
  7.3935E-05
  7.3936E-05
  2.7601E-04
  2.7601E-04
  2.7601E-04
  2.7601E-04
  2.7601E-04
  2.7601E-04
  2.7601E-04
  2.7601E-04
  2.7601E-04
  1.0311E-03
  1.0311E-03
  1.0311E-03
  1.0311E-03
  1.0311E-03
  1.0311E-03
  1.0311E-03
  1.0311E-03
  1.0311E-03
  3.8516E-03
  3.8516E-03
  3.8516E-03
  3.8516E-03
  3.8516E-03
  3.8516E-03
  3.8516E-03
  3.8516E-03
  3.8516E-03
  1.4388E-02
  1.4388E-02
  1.4388E-02
  1.4388E-02
  1.4388E-02
  1.4388E-02
  1.4388E-02
  1.4388E-02
  1.4388E-02
  5.3743E-02
  5.3743E-02
  5.3743E-02
  5.3743E-02
  5.3743E-02
  5.3743E-02
  5.3743E-02
  5.3743E-02
  5.3743E-02
  2.0077E-01
  2.0077E-01
  2.0077E-01
  2.0077E-01
  2.0077E-01
  2.0077E-01
  2.0077E-01
  2.0077E-01
  2.0077E-01
  7.4970E-01
  7.4970E-01
  7.4970E-01
  7.4970E-01
  7.4970E-01
  7.4970E-01
  7.4970E-01
  7.4970E-01
  7.4970E-01
  1.1826E+00
  1.1826E+00
  1.1826E+00
  1.1826E+00
  1.1826E+00
  1.1826E+00
  1.1826E+00
  1.1826E+00
  1.1826E+00
   2.6000E-02
  2.0123E-14
  2.7180E-14
  3.4238E-14
  1.0061E-14
  1.8593E-14
  2.7124E-14
  0.0000E+00
  1.0005E-14
  2.0011E-14
  9.0348E-14
  1.0769E-13
  1.2504E-13
  4.5174E-14
  7.6417E-14
  1.0766E-13
  0.0000E+00
  4.5140E-14
  9.0281E-14
  4.1707E-13
  4.7791E-13
  5.3874E-13
  2.0853E-13
  3.4321E-13
  4.7788E-13
  0.0000E+00
  2.0851E-13
  4.1702E-13
  1.6043E-12
  1.8258E-12
  2.0472E-12
  8.0217E-13
  1.3140E-12
  1.8258E-12
  0.0000E+00
  8.0215E-13
  1.6043E-12
  6.0012E-12
  6.8263E-12
  7.6514E-12
  3.0006E-12
  4.9135E-12
  6.8263E-12
  0.0000E+00
  3.0006E-12
  6.0013E-12
  2.2328E-11
  2.5412E-11
  2.8496E-11
  1.1164E-11
  1.8288E-11
  2.5412E-11
  0.0000E+00
  1.1164E-11
  2.2328E-11
  8.3188E-11
  9.4715E-11
  1.0624E-10
  4.1594E-11
  6.8154E-11
  9.4715E-11
  0.0000E+00
  4.1594E-11
  8.3188E-11
  9.4707E-08
  9.4696E-08
  9.4686E-08
  9.4693E-08
  9.4695E-08
  9.4696E-08
  9.4680E-08
  9.4693E-08
  9.4707E-08
  3.7855E-07
  3.7846E-07
  3.7837E-07
  3.7863E-07
  3.7855E-07
  3.7846E-07
  3.7872E-07
  3.7863E-07
  3.7855E-07
  1.4195E-06
  1.4192E-06
  1.4190E-06
  1.4197E-06
  1.4195E-06
  1.4192E-06
  1.4200E-06
  1.4197E-06
  1.4195E-06
  5.4356E-06
  5.4352E-06
  5.4349E-06
  5.4359E-06
  5.4356E-06
  5.4352E-06
  5.4363E-06
  5.4359E-06
  5.4356E-06
  2.0067E-05
  2.0067E-05
  2.0067E-05
  2.0067E-05
  2.0067E-05
  2.0067E-05
  2.0067E-05
  2.0067E-05
  2.0067E-05
  7.4503E-05
  7.4504E-05
  7.4504E-05
  7.4503E-05
  7.4503E-05
  7.4504E-05
  7.4503E-05
  7.4503E-05
  7.4503E-05
  2.7813E-04
  2.7813E-04
  2.7813E-04
  2.7813E-04
  2.7813E-04
  2.7813E-04
  2.7813E-04
  2.7813E-04
  2.7813E-04
  1.0390E-03
  1.0390E-03
  1.0390E-03
  1.0390E-03
  1.0390E-03
  1.0390E-03
  1.0390E-03
  1.0390E-03
  1.0390E-03
  3.8813E-03
  3.8813E-03
  3.8813E-03
  3.8813E-03
  3.8813E-03
  3.8813E-03
  3.8813E-03
  3.8813E-03
  3.8813E-03
  1.4498E-02
  1.4498E-02
  1.4498E-02
  1.4498E-02
  1.4498E-02
  1.4498E-02
  1.4498E-02
  1.4498E-02
  1.4498E-02
  5.4157E-02
  5.4157E-02
  5.4157E-02
  5.4157E-02
  5.4157E-02
  5.4157E-02
  5.4157E-02
  5.4157E-02
  5.4157E-02
  2.0232E-01
  2.0232E-01
  2.0232E-01
  2.0232E-01
  2.0232E-01
  2.0232E-01
  2.0232E-01
  2.0232E-01
  2.0232E-01
  7.5550E-01
  7.5550E-01
  7.5550E-01
  7.5550E-01
  7.5550E-01
  7.5550E-01
  7.5550E-01
  7.5550E-01
  7.5550E-01
  1.1918E+00
  1.1918E+00
  1.1918E+00
  1.1918E+00
  1.1918E+00
  1.1918E+00
  1.1918E+00
  1.1918E+00
  1.1918E+00
   2.6100E-02
  2.0434E-14
  2.7600E-14
  3.4767E-14
  1.0217E-14
  1.8880E-14
  2.7544E-14
  0.0000E+00
  1.0160E-14
  2.0321E-14
  9.1185E-14
  1.0884E-13
  1.2649E-13
  4.5592E-14
  7.7198E-14
  1.0880E-13
  0.0000E+00
  4.5558E-14
  9.1117E-14
  4.2028E-13
  4.8232E-13
  5.4437E-13
  2.1014E-13
  3.4622E-13
  4.8230E-13
  0.0000E+00
  2.1012E-13
  4.2023E-13
  1.6163E-12
  1.8422E-12
  2.0682E-12
  8.0814E-13
  1.3252E-12
  1.8422E-12
  0.0000E+00
  8.0812E-13
  1.6162E-12
  6.0458E-12
  6.8877E-12
  7.7296E-12
  3.0229E-12
  4.9553E-12
  6.8877E-12
  0.0000E+00
  3.0229E-12
  6.0458E-12
  2.2605E-11
  2.5744E-11
  2.8883E-11
  1.1302E-11
  1.8523E-11
  2.5744E-11
  0.0000E+00
  1.1302E-11
  2.2605E-11
  8.4440E-11
  9.6150E-11
  1.0786E-10
  4.2220E-11
  6.9185E-11
  9.6150E-11
  0.0000E+00
  4.2220E-11
  8.4440E-11
  9.5437E-08
  9.5426E-08
  9.5416E-08
  9.5423E-08
  9.5425E-08
  9.5426E-08
  9.5410E-08
  9.5423E-08
  9.5437E-08
  3.8146E-07
  3.8137E-07
  3.8128E-07
  3.8155E-07
  3.8146E-07
  3.8137E-07
  3.8164E-07
  3.8155E-07
  3.8146E-07
  1.4304E-06
  1.4301E-06
  1.4299E-06
  1.4306E-06
  1.4304E-06
  1.4301E-06
  1.4309E-06
  1.4306E-06
  1.4304E-06
  5.4770E-06
  5.4767E-06
  5.4763E-06
  5.4774E-06
  5.4770E-06
  5.4767E-06
  5.4777E-06
  5.4774E-06
  5.4770E-06
  2.0220E-05
  2.0220E-05
  2.0221E-05
  2.0220E-05
  2.0220E-05
  2.0220E-05
  2.0220E-05
  2.0220E-05
  2.0220E-05
  7.5073E-05
  7.5074E-05
  7.5074E-05
  7.5073E-05
  7.5073E-05
  7.5074E-05
  7.5073E-05
  7.5073E-05
  7.5073E-05
  2.8026E-04
  2.8026E-04
  2.8026E-04
  2.8026E-04
  2.8026E-04
  2.8026E-04
  2.8026E-04
  2.8026E-04
  2.8026E-04
  1.0470E-03
  1.0470E-03
  1.0470E-03
  1.0470E-03
  1.0470E-03
  1.0470E-03
  1.0470E-03
  1.0470E-03
  1.0470E-03
  3.9111E-03
  3.9111E-03
  3.9111E-03
  3.9111E-03
  3.9111E-03
  3.9111E-03
  3.9111E-03
  3.9111E-03
  3.9111E-03
  1.4610E-02
  1.4610E-02
  1.4610E-02
  1.4610E-02
  1.4610E-02
  1.4610E-02
  1.4610E-02
  1.4610E-02
  1.4610E-02
  5.4574E-02
  5.4574E-02
  5.4574E-02
  5.4574E-02
  5.4574E-02
  5.4574E-02
  5.4574E-02
  5.4574E-02
  5.4574E-02
  2.0388E-01
  2.0388E-01
  2.0388E-01
  2.0388E-01
  2.0388E-01
  2.0388E-01
  2.0388E-01
  2.0388E-01
  2.0388E-01
  7.6131E-01
  7.6131E-01
  7.6131E-01
  7.6131E-01
  7.6131E-01
  7.6131E-01
  7.6131E-01
  7.6131E-01
  7.6131E-01
  1.2010E+00
  1.2010E+00
  1.2010E+00
  1.2010E+00
  1.2010E+00
  1.2010E+00
  1.2010E+00
  1.2010E+00
  1.2010E+00
   2.6200E-02
  2.0748E-14
  2.8025E-14
  3.5302E-14
  1.0374E-14
  1.9171E-14
  2.7968E-14
  0.0000E+00
  1.0317E-14
  2.0634E-14
  9.2033E-14
  1.1000E-13
  1.2796E-13
  4.6016E-14
  7.7990E-14
  1.0996E-13
  0.0000E+00
  4.5982E-14
  9.1965E-14
  4.2353E-13
  4.8680E-13
  5.5007E-13
  2.1177E-13
  3.4927E-13
  4.8678E-13
  0.0000E+00
  2.1174E-13
  4.2349E-13
  1.6284E-12
  1.8589E-12
  2.0894E-12
  8.1420E-13
  1.3366E-12
  1.8589E-12
  0.0000E+00
  8.1419E-13
  1.6284E-12
  6.1643E-12
  7.0182E-12
  7.8721E-12
  3.0821E-12
  5.0502E-12
  7.0182E-12
  0.0000E+00
  3.0821E-12
  6.1643E-12
  2.3010E-11
  2.6192E-11
  2.9373E-11
  1.1505E-11
  1.8849E-11
  2.6192E-11
  0.0000E+00
  1.1505E-11
  2.3011E-11
  8.5754E-11
  9.7640E-11
  1.0953E-10
  4.2877E-11
  7.0259E-11
  9.7640E-11
  0.0000E+00
  4.2877E-11
  8.5754E-11
  9.6170E-08
  9.6159E-08
  9.6149E-08
  9.6156E-08
  9.6158E-08
  9.6159E-08
  9.6142E-08
  9.6156E-08
  9.6170E-08
  3.8439E-07
  3.8430E-07
  3.8421E-07
  3.8448E-07
  3.8439E-07
  3.8430E-07
  3.8457E-07
  3.8448E-07
  3.8439E-07
  1.4413E-06
  1.4411E-06
  1.4408E-06
  1.4416E-06
  1.4413E-06
  1.4411E-06
  1.4418E-06
  1.4416E-06
  1.4413E-06
  5.5186E-06
  5.5183E-06
  5.5179E-06
  5.5190E-06
  5.5186E-06
  5.5183E-06
  5.5193E-06
  5.5190E-06
  5.5186E-06
  2.0374E-05
  2.0374E-05
  2.0374E-05
  2.0374E-05
  2.0374E-05
  2.0374E-05
  2.0374E-05
  2.0374E-05
  2.0374E-05
  7.5645E-05
  7.5646E-05
  7.5646E-05
  7.5645E-05
  7.5645E-05
  7.5646E-05
  7.5645E-05
  7.5645E-05
  7.5645E-05
  2.8240E-04
  2.8240E-04
  2.8240E-04
  2.8240E-04
  2.8240E-04
  2.8240E-04
  2.8240E-04
  2.8240E-04
  2.8240E-04
  1.0550E-03
  1.0550E-03
  1.0550E-03
  1.0550E-03
  1.0550E-03
  1.0550E-03
  1.0550E-03
  1.0550E-03
  1.0550E-03
  3.9409E-03
  3.9409E-03
  3.9409E-03
  3.9409E-03
  3.9409E-03
  3.9409E-03
  3.9409E-03
  3.9409E-03
  3.9409E-03
  1.4722E-02
  1.4722E-02
  1.4722E-02
  1.4722E-02
  1.4722E-02
  1.4722E-02
  1.4722E-02
  1.4722E-02
  1.4722E-02
  5.4991E-02
  5.4991E-02
  5.4991E-02
  5.4991E-02
  5.4991E-02
  5.4991E-02
  5.4991E-02
  5.4991E-02
  5.4991E-02
  2.0544E-01
  2.0544E-01
  2.0544E-01
  2.0544E-01
  2.0544E-01
  2.0544E-01
  2.0544E-01
  2.0544E-01
  2.0544E-01
  7.6715E-01
  7.6715E-01
  7.6715E-01
  7.6715E-01
  7.6715E-01
  7.6715E-01
  7.6715E-01
  7.6715E-01
  7.6715E-01
  1.2102E+00
  1.2102E+00
  1.2102E+00
  1.2102E+00
  1.2102E+00
  1.2102E+00
  1.2102E+00
  1.2102E+00
  1.2102E+00
   2.6300E-02
  2.1066E-14
  2.8455E-14
  3.5844E-14
  1.0533E-14
  1.9465E-14
  2.8397E-14
  0.0000E+00
  1.0475E-14
  2.0951E-14
  9.2892E-14
  1.1117E-13
  1.2946E-13
  4.6446E-14
  7.8793E-14
  1.1114E-13
  0.0000E+00
  4.6412E-14
  9.2824E-14
  4.2684E-13
  4.9135E-13
  5.5585E-13
  2.1342E-13
  3.5237E-13
  4.9132E-13
  0.0000E+00
  2.1340E-13
  4.2679E-13
  1.6773E-12
  1.9099E-12
  2.1426E-12
  8.3866E-13
  1.3743E-12
  1.9099E-12
  0.0000E+00
  8.3864E-13
  1.6773E-12
  6.2736E-12
  7.1377E-12
  8.0018E-12
  3.1368E-12
  5.1373E-12
  7.1377E-12
  0.0000E+00
  3.1368E-12
  6.2736E-12
  2.3318E-11
  2.6551E-11
  2.9785E-11
  1.1659E-11
  1.9105E-11
  2.6551E-11
  0.0000E+00
  1.1659E-11
  2.3318E-11
  8.7020E-11
  9.9095E-11
  1.1117E-10
  4.3510E-11
  7.1303E-11
  9.9095E-11
  0.0000E+00
  4.3510E-11
  8.7020E-11
  9.6906E-08
  9.6895E-08
  9.6884E-08
  9.6891E-08
  9.6893E-08
  9.6895E-08
  9.6877E-08
  9.6891E-08
  9.6906E-08
  3.8733E-07
  3.8724E-07
  3.8714E-07
  3.8742E-07
  3.8733E-07
  3.8724E-07
  3.8751E-07
  3.8742E-07
  3.8733E-07
  1.4523E-06
  1.4520E-06
  1.4518E-06
  1.4525E-06
  1.4523E-06
  1.4520E-06
  1.4528E-06
  1.4525E-06
  1.4523E-06
  5.5603E-06
  5.5600E-06
  5.5596E-06
  5.5607E-06
  5.5603E-06
  5.5600E-06
  5.5611E-06
  5.5607E-06
  5.5603E-06
  2.0528E-05
  2.0528E-05
  2.0528E-05
  2.0528E-05
  2.0528E-05
  2.0528E-05
  2.0528E-05
  2.0528E-05
  2.0528E-05
  7.6219E-05
  7.6220E-05
  7.6220E-05
  7.6219E-05
  7.6219E-05
  7.6220E-05
  7.6219E-05
  7.6219E-05
  7.6219E-05
  2.8454E-04
  2.8455E-04
  2.8455E-04
  2.8454E-04
  2.8454E-04
  2.8455E-04
  2.8454E-04
  2.8454E-04
  2.8454E-04
  1.0630E-03
  1.0630E-03
  1.0630E-03
  1.0630E-03
  1.0630E-03
  1.0630E-03
  1.0630E-03
  1.0630E-03
  1.0630E-03
  3.9710E-03
  3.9710E-03
  3.9710E-03
  3.9710E-03
  3.9710E-03
  3.9710E-03
  3.9710E-03
  3.9710E-03
  3.9710E-03
  1.4834E-02
  1.4834E-02
  1.4834E-02
  1.4834E-02
  1.4834E-02
  1.4834E-02
  1.4834E-02
  1.4834E-02
  1.4834E-02
  5.5411E-02
  5.5411E-02
  5.5411E-02
  5.5411E-02
  5.5411E-02
  5.5411E-02
  5.5411E-02
  5.5411E-02
  5.5411E-02
  2.0701E-01
  2.0701E-01
  2.0701E-01
  2.0701E-01
  2.0701E-01
  2.0701E-01
  2.0701E-01
  2.0701E-01
  2.0701E-01
  7.7301E-01
  7.7301E-01
  7.7301E-01
  7.7301E-01
  7.7301E-01
  7.7301E-01
  7.7301E-01
  7.7301E-01
  7.7301E-01
  1.2194E+00
  1.2194E+00
  1.2194E+00
  1.2194E+00
  1.2194E+00
  1.2194E+00
  1.2194E+00
  1.2194E+00
  1.2194E+00
   2.6400E-02
  2.1387E-14
  2.8889E-14
  3.6392E-14
  1.0693E-14
  1.9763E-14
  2.8832E-14
  0.0000E+00
  1.0636E-14
  2.1271E-14
  9.3764E-14
  1.1237E-13
  1.3097E-13
  4.6882E-14
  7.9607E-14
  1.1233E-13
  0.0000E+00
  4.6847E-14
  9.3695E-14
  4.3019E-13
  4.9595E-13
  5.6172E-13
  2.1510E-13
  3.5551E-13
  4.9593E-13
  0.0000E+00
  2.1507E-13
  4.3014E-13
  1.6897E-12
  1.9270E-12
  2.1643E-12
  8.4484E-13
  1.3859E-12
  1.9270E-12
  0.0000E+00
  8.4482E-13
  1.6896E-12
  6.3198E-12
  7.2013E-12
  8.0828E-12
  3.1599E-12
  5.1806E-12
  7.2013E-12
  0.0000E+00
  3.1599E-12
  6.3198E-12
  2.3637E-11
  2.6925E-11
  3.0214E-11
  1.1818E-11
  1.9372E-11
  2.6925E-11
  0.0000E+00
  1.1818E-11
  2.3637E-11
  8.8357E-11
  1.0062E-10
  1.1288E-10
  4.4179E-11
  7.2398E-11
  1.0062E-10
  0.0000E+00
  4.4179E-11
  8.8358E-11
  9.7644E-08
  9.7633E-08
  9.7622E-08
  9.7630E-08
  9.7631E-08
  9.7633E-08
  9.7615E-08
  9.7630E-08
  9.7644E-08
  3.9028E-07
  3.9018E-07
  3.9009E-07
  3.9037E-07
  3.9028E-07
  3.9018E-07
  3.9046E-07
  3.9037E-07
  3.9028E-07
  1.4633E-06
  1.4631E-06
  1.4628E-06
  1.4636E-06
  1.4633E-06
  1.4631E-06
  1.4638E-06
  1.4636E-06
  1.4633E-06
  5.6022E-06
  5.6019E-06
  5.6015E-06
  5.6026E-06
  5.6022E-06
  5.6019E-06
  5.6029E-06
  5.6026E-06
  5.6022E-06
  2.0683E-05
  2.0683E-05
  2.0683E-05
  2.0683E-05
  2.0683E-05
  2.0683E-05
  2.0683E-05
  2.0683E-05
  2.0683E-05
  7.6796E-05
  7.6796E-05
  7.6796E-05
  7.6795E-05
  7.6796E-05
  7.6796E-05
  7.6795E-05
  7.6795E-05
  7.6796E-05
  2.8670E-04
  2.8670E-04
  2.8670E-04
  2.8670E-04
  2.8670E-04
  2.8670E-04
  2.8670E-04
  2.8670E-04
  2.8670E-04
  1.0710E-03
  1.0710E-03
  1.0710E-03
  1.0710E-03
  1.0710E-03
  1.0710E-03
  1.0710E-03
  1.0710E-03
  1.0710E-03
  4.0011E-03
  4.0011E-03
  4.0011E-03
  4.0011E-03
  4.0011E-03
  4.0011E-03
  4.0011E-03
  4.0011E-03
  4.0011E-03
  1.4946E-02
  1.4946E-02
  1.4946E-02
  1.4946E-02
  1.4946E-02
  1.4946E-02
  1.4946E-02
  1.4946E-02
  1.4946E-02
  5.5832E-02
  5.5832E-02
  5.5832E-02
  5.5832E-02
  5.5832E-02
  5.5832E-02
  5.5832E-02
  5.5832E-02
  5.5832E-02
  2.0858E-01
  2.0858E-01
  2.0858E-01
  2.0858E-01
  2.0858E-01
  2.0858E-01
  2.0858E-01
  2.0858E-01
  2.0858E-01
  7.7890E-01
  7.7890E-01
  7.7890E-01
  7.7890E-01
  7.7890E-01
  7.7890E-01
  7.7890E-01
  7.7890E-01
  7.7890E-01
  1.2287E+00
  1.2287E+00
  1.2287E+00
  1.2287E+00
  1.2287E+00
  1.2287E+00
  1.2287E+00
  1.2287E+00
  1.2287E+00
   2.6500E-02
  2.1712E-14
  2.9329E-14
  3.6946E-14
  1.0856E-14
  2.0063E-14
  2.9271E-14
  0.0000E+00
  1.0798E-14
  2.1596E-14
  9.4647E-14
  1.1358E-13
  1.3250E-13
  4.7324E-14
  8.0432E-14
  1.1354E-13
  0.0000E+00
  4.7289E-14
  9.4577E-14
  4.3359E-13
  5.0063E-13
  5.6767E-13
  2.1680E-13
  3.5870E-13
  5.0061E-13
  0.0000E+00
  2.1677E-13
  4.3355E-13
  1.7022E-12
  1.9443E-12
  2.1863E-12
  8.5112E-13
  1.3977E-12
  1.9442E-12
  0.0000E+00
  8.5110E-13
  1.7022E-12
  6.4397E-12
  7.3338E-12
  8.2279E-12
  3.2198E-12
  5.2768E-12
  7.3338E-12
  0.0000E+00
  3.2198E-12
  6.4397E-12
  2.4048E-11
  2.7381E-11
  3.0713E-11
  1.2024E-11
  1.9702E-11
  2.7381E-11
  0.0000E+00
  1.2024E-11
  2.4048E-11
  8.9693E-11
  1.0214E-10
  1.1458E-10
  4.4846E-11
  7.3492E-11
  1.0214E-10
  0.0000E+00
  4.4846E-11
  8.9693E-11
  9.8385E-08
  9.8374E-08
  9.8363E-08
  9.8371E-08
  9.8373E-08
  9.8374E-08
  9.8356E-08
  9.8371E-08
  9.8385E-08
  3.9324E-07
  3.9314E-07
  3.9305E-07
  3.9333E-07
  3.9324E-07
  3.9314E-07
  3.9343E-07
  3.9333E-07
  3.9324E-07
  1.4744E-06
  1.4741E-06
  1.4738E-06
  1.4746E-06
  1.4744E-06
  1.4741E-06
  1.4749E-06
  1.4746E-06
  1.4744E-06
  5.6442E-06
  5.6439E-06
  5.6435E-06
  5.6446E-06
  5.6442E-06
  5.6439E-06
  5.6450E-06
  5.6446E-06
  5.6442E-06
  2.0838E-05
  2.0838E-05
  2.0839E-05
  2.0838E-05
  2.0838E-05
  2.0838E-05
  2.0838E-05
  2.0838E-05
  2.0838E-05
  7.7374E-05
  7.7374E-05
  7.7375E-05
  7.7374E-05
  7.7374E-05
  7.7374E-05
  7.7374E-05
  7.7374E-05
  7.7374E-05
  2.8886E-04
  2.8886E-04
  2.8886E-04
  2.8886E-04
  2.8886E-04
  2.8886E-04
  2.8886E-04
  2.8886E-04
  2.8886E-04
  1.0791E-03
  1.0791E-03
  1.0791E-03
  1.0791E-03
  1.0791E-03
  1.0791E-03
  1.0791E-03
  1.0791E-03
  1.0791E-03
  4.0313E-03
  4.0313E-03
  4.0313E-03
  4.0313E-03
  4.0313E-03
  4.0313E-03
  4.0313E-03
  4.0313E-03
  4.0313E-03
  1.5059E-02
  1.5059E-02
  1.5059E-02
  1.5059E-02
  1.5059E-02
  1.5059E-02
  1.5059E-02
  1.5059E-02
  1.5059E-02
  5.6255E-02
  5.6255E-02
  5.6255E-02
  5.6255E-02
  5.6255E-02
  5.6255E-02
  5.6255E-02
  5.6255E-02
  5.6255E-02
  2.1016E-01
  2.1016E-01
  2.1016E-01
  2.1016E-01
  2.1016E-01
  2.1016E-01
  2.1016E-01
  2.1016E-01
  2.1016E-01
  7.8480E-01
  7.8480E-01
  7.8480E-01
  7.8480E-01
  7.8480E-01
  7.8480E-01
  7.8480E-01
  7.8480E-01
  7.8480E-01
  1.2380E+00
  1.2380E+00
  1.2380E+00
  1.2380E+00
  1.2380E+00
  1.2380E+00
  1.2380E+00
  1.2380E+00
  1.2380E+00
   2.6600E-02
  2.2041E-14
  2.9774E-14
  3.7506E-14
  1.1020E-14
  2.0368E-14
  2.9715E-14
  0.0000E+00
  1.0962E-14
  2.1924E-14
  9.5542E-14
  1.1480E-13
  1.3406E-13
  4.7771E-14
  8.1268E-14
  1.1476E-13
  0.0000E+00
  4.7736E-14
  9.5472E-14
  4.3704E-13
  5.0537E-13
  5.7370E-13
  2.1852E-13
  3.6193E-13
  5.0535E-13
  0.0000E+00
  2.1850E-13
  4.3700E-13
  1.7150E-12
  1.9618E-12
  2.2086E-12
  8.5748E-13
  1.4096E-12
  1.9618E-12
  0.0000E+00
  8.5747E-13
  1.7149E-12
  6.4870E-12
  7.3989E-12
  8.3108E-12
  3.2435E-12
  5.3212E-12
  7.3989E-12
  0.0000E+00
  3.2435E-12
  6.4870E-12
  2.4334E-11
  2.7726E-11
  3.1118E-11
  1.2167E-11
  1.9946E-11
  2.7726E-11
  0.0000E+00
  1.2167E-11
  2.4334E-11
  9.1054E-11
  1.0369E-10
  1.1633E-10
  4.5527E-11
  7.4609E-11
  1.0369E-10
  0.0000E+00
  4.5527E-11
  9.1054E-11
  9.9130E-08
  9.9118E-08
  9.9107E-08
  9.9115E-08
  9.9117E-08
  9.9118E-08
  9.9100E-08
  9.9115E-08
  9.9130E-08
  3.9621E-07
  3.9611E-07
  3.9602E-07
  3.9631E-07
  3.9621E-07
  3.9611E-07
  3.9640E-07
  3.9631E-07
  3.9621E-07
  1.4854E-06
  1.4852E-06
  1.4849E-06
  1.4857E-06
  1.4854E-06
  1.4852E-06
  1.4860E-06
  1.4857E-06
  1.4854E-06
  5.6864E-06
  5.6861E-06
  5.6857E-06
  5.6868E-06
  5.6864E-06
  5.6861E-06
  5.6871E-06
  5.6868E-06
  5.6864E-06
  2.0994E-05
  2.0994E-05
  2.0994E-05
  2.0994E-05
  2.0994E-05
  2.0994E-05
  2.0994E-05
  2.0994E-05
  2.0994E-05
  7.7955E-05
  7.7955E-05
  7.7955E-05
  7.7954E-05
  7.7955E-05
  7.7955E-05
  7.7954E-05
  7.7954E-05
  7.7955E-05
  2.9103E-04
  2.9103E-04
  2.9103E-04
  2.9103E-04
  2.9103E-04
  2.9103E-04
  2.9103E-04
  2.9103E-04
  2.9103E-04
  1.0872E-03
  1.0872E-03
  1.0872E-03
  1.0872E-03
  1.0872E-03
  1.0872E-03
  1.0872E-03
  1.0872E-03
  1.0872E-03
  4.0616E-03
  4.0616E-03
  4.0616E-03
  4.0616E-03
  4.0616E-03
  4.0616E-03
  4.0616E-03
  4.0616E-03
  4.0616E-03
  1.5173E-02
  1.5173E-02
  1.5173E-02
  1.5173E-02
  1.5173E-02
  1.5173E-02
  1.5173E-02
  1.5173E-02
  1.5173E-02
  5.6679E-02
  5.6679E-02
  5.6679E-02
  5.6679E-02
  5.6679E-02
  5.6679E-02
  5.6679E-02
  5.6679E-02
  5.6679E-02
  2.1175E-01
  2.1175E-01
  2.1175E-01
  2.1175E-01
  2.1175E-01
  2.1175E-01
  2.1175E-01
  2.1175E-01
  2.1175E-01
  7.9073E-01
  7.9073E-01
  7.9073E-01
  7.9073E-01
  7.9073E-01
  7.9073E-01
  7.9073E-01
  7.9073E-01
  7.9073E-01
  1.2474E+00
  1.2474E+00
  1.2474E+00
  1.2474E+00
  1.2474E+00
  1.2474E+00
  1.2474E+00
  1.2474E+00
  1.2474E+00
   2.6700E-02
  2.2373E-14
  3.0223E-14
  3.8073E-14
  1.1187E-14
  2.0675E-14
  3.0164E-14
  0.0000E+00
  1.1128E-14
  2.2255E-14
  9.6450E-14
  1.1604E-13
  1.3563E-13
  4.8225E-14
  8.2115E-14
  1.1601E-13
  0.0000E+00
  4.8189E-14
  9.6379E-14
  4.4054E-13
  5.1018E-13
  5.7981E-13
  2.2027E-13
  3.6521E-13
  5.1015E-13
  0.0000E+00
  2.2025E-13
  4.4049E-13
  1.7279E-12
  1.9830E-12
  2.2381E-12
  8.6394E-13
  1.4280E-12
  1.9921E-12
  0.0000E+00
  8.7308E-13
  1.7462E-12
  6.6080E-12
  7.5376E-12
  8.4671E-12
  3.3040E-12
  5.4288E-12
  7.5535E-12
  0.0000E+00
  3.3200E-12
  6.6399E-12
  2.4786E-11
  2.8222E-11
  3.1658E-11
  1.2393E-11
  2.0311E-11
  2.8229E-11
  0.0000E+00
  1.2400E-11
  2.4800E-11
  9.2468E-11
  1.0529E-10
  1.1811E-10
  4.6234E-11
  7.5761E-11
  1.0529E-10
  0.0000E+00
  4.6234E-11
  9.2468E-11
  9.9877E-08
  9.9865E-08
  9.9854E-08
  9.9862E-08
  9.9863E-08
  9.9865E-08
  9.9847E-08
  9.9862E-08
  9.9877E-08
  3.9919E-07
  3.9910E-07
  3.9900E-07
  3.9929E-07
  3.9919E-07
  3.9910E-07
  3.9939E-07
  3.9929E-07
  3.9919E-07
  1.4966E-06
  1.4963E-06
  1.4961E-06
  1.4968E-06
  1.4966E-06
  1.4963E-06
  1.4971E-06
  1.4968E-06
  1.4966E-06
  5.7287E-06
  5.7284E-06
  5.7280E-06
  5.7291E-06
  5.7287E-06
  5.7284E-06
  5.7294E-06
  5.7291E-06
  5.7287E-06
  2.1151E-05
  2.1151E-05
  2.1151E-05
  2.1150E-05
  2.1151E-05
  2.1151E-05
  2.1150E-05
  2.1150E-05
  2.1151E-05
  7.8537E-05
  7.8537E-05
  7.8538E-05
  7.8537E-05
  7.8537E-05
  7.8537E-05
  7.8537E-05
  7.8537E-05
  7.8537E-05
  2.9321E-04
  2.9321E-04
  2.9321E-04
  2.9321E-04
  2.9321E-04
  2.9321E-04
  2.9321E-04
  2.9321E-04
  2.9321E-04
  1.0954E-03
  1.0954E-03
  1.0954E-03
  1.0954E-03
  1.0954E-03
  1.0954E-03
  1.0954E-03
  1.0954E-03
  1.0954E-03
  4.0921E-03
  4.0921E-03
  4.0921E-03
  4.0921E-03
  4.0921E-03
  4.0921E-03
  4.0921E-03
  4.0921E-03
  4.0921E-03
  1.5287E-02
  1.5287E-02
  1.5287E-02
  1.5287E-02
  1.5287E-02
  1.5287E-02
  1.5287E-02
  1.5287E-02
  1.5287E-02
  5.7105E-02
  5.7105E-02
  5.7105E-02
  5.7105E-02
  5.7105E-02
  5.7105E-02
  5.7105E-02
  5.7105E-02
  5.7105E-02
  2.1334E-01
  2.1334E-01
  2.1334E-01
  2.1334E-01
  2.1334E-01
  2.1334E-01
  2.1334E-01
  2.1334E-01
  2.1334E-01
  7.9668E-01
  7.9668E-01
  7.9668E-01
  7.9668E-01
  7.9668E-01
  7.9668E-01
  7.9668E-01
  7.9668E-01
  7.9668E-01
  1.2568E+00
  1.2568E+00
  1.2568E+00
  1.2568E+00
  1.2568E+00
  1.2568E+00
  1.2568E+00
  1.2568E+00
  1.2568E+00
   2.6800E-02
  2.2710E-14
  3.0678E-14
  3.8646E-14
  1.1355E-14
  2.0987E-14
  3.0618E-14
  0.0000E+00
  1.1295E-14
  2.2591E-14
  9.7369E-14
  1.1730E-13
  1.3723E-13
  4.8684E-14
  8.2973E-14
  1.1726E-13
  0.0000E+00
  4.8649E-14
  9.7298E-14
  4.4409E-13
  5.1505E-13
  5.8601E-13
  2.2204E-13
  3.6854E-13
  5.1503E-13
  0.0000E+00
  2.2202E-13
  4.4404E-13
  1.7775E-12
  2.0316E-12
  2.2856E-12
  8.8875E-13
  1.4601E-12
  2.0315E-12
  0.0000E+00
  8.8873E-13
  1.7775E-12
  6.7200E-12
  7.6561E-12
  8.5922E-12
  3.3600E-12
  5.5081E-12
  7.6561E-12
  0.0000E+00
  3.3600E-12
  6.7200E-12
  2.5103E-11
  2.8594E-11
  3.2085E-11
  1.2552E-11
  2.0573E-11
  2.8594E-11
  0.0000E+00
  1.2552E-11
  2.5104E-11
  9.3771E-11
  1.0679E-10
  1.1982E-10
  4.6886E-11
  7.6840E-11
  1.0679E-10
  0.0000E+00
  4.6886E-11
  9.3772E-11
  1.0063E-07
  1.0061E-07
  1.0060E-07
  1.0061E-07
  1.0061E-07
  1.0061E-07
  1.0060E-07
  1.0061E-07
  1.0063E-07
  4.0219E-07
  4.0209E-07
  4.0199E-07
  4.0229E-07
  4.0219E-07
  4.0209E-07
  4.0238E-07
  4.0229E-07
  4.0219E-07
  1.5077E-06
  1.5075E-06
  1.5072E-06
  1.5080E-06
  1.5077E-06
  1.5075E-06
  1.5082E-06
  1.5080E-06
  1.5077E-06
  5.7712E-06
  5.7708E-06
  5.7705E-06
  5.7715E-06
  5.7712E-06
  5.7708E-06
  5.7719E-06
  5.7715E-06
  5.7712E-06
  2.1308E-05
  2.1308E-05
  2.1308E-05
  2.1308E-05
  2.1308E-05
  2.1308E-05
  2.1307E-05
  2.1308E-05
  2.1308E-05
  7.9122E-05
  7.9122E-05
  7.9122E-05
  7.9122E-05
  7.9122E-05
  7.9122E-05
  7.9121E-05
  7.9122E-05
  7.9122E-05
  2.9539E-04
  2.9540E-04
  2.9540E-04
  2.9539E-04
  2.9539E-04
  2.9540E-04
  2.9539E-04
  2.9539E-04
  2.9539E-04
  1.1036E-03
  1.1036E-03
  1.1036E-03
  1.1036E-03
  1.1036E-03
  1.1036E-03
  1.1036E-03
  1.1036E-03
  1.1036E-03
  4.1227E-03
  4.1227E-03
  4.1227E-03
  4.1227E-03
  4.1227E-03
  4.1227E-03
  4.1227E-03
  4.1227E-03
  4.1227E-03
  1.5401E-02
  1.5401E-02
  1.5401E-02
  1.5401E-02
  1.5401E-02
  1.5401E-02
  1.5401E-02
  1.5401E-02
  1.5401E-02
  5.7532E-02
  5.7532E-02
  5.7532E-02
  5.7532E-02
  5.7532E-02
  5.7532E-02
  5.7532E-02
  5.7532E-02
  5.7532E-02
  2.1494E-01
  2.1494E-01
  2.1494E-01
  2.1494E-01
  2.1494E-01
  2.1494E-01
  2.1494E-01
  2.1494E-01
  2.1494E-01
  8.0265E-01
  8.0265E-01
  8.0265E-01
  8.0265E-01
  8.0265E-01
  8.0265E-01
  8.0265E-01
  8.0265E-01
  8.0265E-01
  1.2662E+00
  1.2662E+00
  1.2662E+00
  1.2662E+00
  1.2662E+00
  1.2662E+00
  1.2662E+00
  1.2662E+00
  1.2662E+00
   2.6900E-02
  2.3050E-14
  3.1138E-14
  3.9226E-14
  1.1525E-14
  2.1301E-14
  3.1078E-14
  0.0000E+00
  1.1465E-14
  2.2930E-14
  9.8300E-14
  1.1857E-13
  1.3884E-13
  4.9150E-14
  8.3843E-14
  1.1853E-13
  0.0000E+00
  4.9114E-14
  9.8229E-14
  4.4769E-13
  5.1999E-13
  5.9230E-13
  2.2384E-13
  3.7191E-13
  5.1997E-13
  0.0000E+00
  2.2382E-13
  4.4764E-13
  1.7907E-12
  2.0497E-12
  2.3087E-12
  8.9534E-13
  1.4725E-12
  2.0497E-12
  0.0000E+00
  8.9532E-13
  1.7906E-12
  6.8421E-12
  7.7916E-12
  8.7411E-12
  3.4210E-12
  5.6063E-12
  7.7916E-12
  0.0000E+00
  3.4210E-12
  6.8421E-12
  2.5560E-11
  2.9095E-11
  3.2630E-11
  1.2780E-11
  2.0937E-11
  2.9095E-11
  0.0000E+00
  1.2780E-11
  2.5560E-11
  9.5273E-11
  1.0848E-10
  1.2169E-10
  4.7637E-11
  7.8059E-11
  1.0848E-10
  0.0000E+00
  4.7637E-11
  9.5274E-11
  1.0138E-07
  1.0137E-07
  1.0136E-07
  1.0136E-07
  1.0137E-07
  1.0137E-07
  1.0135E-07
  1.0136E-07
  1.0138E-07
  4.0519E-07
  4.0509E-07
  4.0499E-07
  4.0529E-07
  4.0519E-07
  4.0509E-07
  4.0539E-07
  4.0529E-07
  4.0519E-07
  1.5189E-06
  1.5187E-06
  1.5184E-06
  1.5192E-06
  1.5189E-06
  1.5187E-06
  1.5194E-06
  1.5192E-06
  1.5189E-06
  5.8138E-06
  5.8134E-06
  5.8131E-06
  5.8141E-06
  5.8138E-06
  5.8134E-06
  5.8145E-06
  5.8141E-06
  5.8138E-06
  2.1465E-05
  2.1465E-05
  2.1466E-05
  2.1465E-05
  2.1465E-05
  2.1465E-05
  2.1465E-05
  2.1465E-05
  2.1465E-05
  7.9709E-05
  7.9709E-05
  7.9709E-05
  7.9708E-05
  7.9709E-05
  7.9709E-05
  7.9708E-05
  7.9708E-05
  7.9709E-05
  2.9759E-04
  2.9759E-04
  2.9759E-04
  2.9759E-04
  2.9759E-04
  2.9759E-04
  2.9759E-04
  2.9759E-04
  2.9759E-04
  1.1118E-03
  1.1118E-03
  1.1118E-03
  1.1118E-03
  1.1118E-03
  1.1118E-03
  1.1118E-03
  1.1118E-03
  1.1118E-03
  4.1533E-03
  4.1533E-03
  4.1533E-03
  4.1533E-03
  4.1533E-03
  4.1533E-03
  4.1533E-03
  4.1533E-03
  4.1533E-03
  1.5516E-02
  1.5516E-02
  1.5516E-02
  1.5516E-02
  1.5516E-02
  1.5516E-02
  1.5516E-02
  1.5516E-02
  1.5516E-02
  5.7961E-02
  5.7961E-02
  5.7961E-02
  5.7961E-02
  5.7961E-02
  5.7961E-02
  5.7961E-02
  5.7961E-02
  5.7961E-02
  2.1655E-01
  2.1655E-01
  2.1655E-01
  2.1655E-01
  2.1655E-01
  2.1655E-01
  2.1655E-01
  2.1655E-01
  2.1655E-01
  8.0865E-01
  8.0865E-01
  8.0865E-01
  8.0865E-01
  8.0865E-01
  8.0865E-01
  8.0865E-01
  8.0865E-01
  8.0865E-01
  1.2756E+00
  1.2756E+00
  1.2756E+00
  1.2756E+00
  1.2756E+00
  1.2756E+00
  1.2756E+00
  1.2756E+00
  1.2756E+00
   2.7000E-02
  2.3393E-14
  3.1602E-14
  3.9812E-14
  1.1697E-14
  2.1619E-14
  3.1542E-14
  0.0000E+00
  1.1636E-14
  2.3273E-14
  9.9244E-14
  1.1986E-13
  1.4048E-13
  4.9622E-14
  8.4723E-14
  1.1982E-13
  0.0000E+00
  4.9586E-14
  9.9172E-14
  4.5134E-13
  5.2500E-13
  5.9866E-13
  2.2567E-13
  3.7532E-13
  5.2498E-13
  0.0000E+00
  2.2565E-13
  4.5129E-13
  1.8040E-12
  2.0681E-12
  2.3321E-12
  9.0202E-13
  1.4850E-12
  2.0681E-12
  0.0000E+00
  9.0200E-13
  1.8040E-12
  6.8915E-12
  7.8597E-12
  8.8279E-12
  3.4458E-12
  5.6527E-12
  7.8597E-12
  0.0000E+00
  3.4458E-12
  6.8915E-12
  2.5854E-11
  2.9451E-11
  3.3049E-11
  1.2927E-11
  2.1189E-11
  2.9451E-11
  0.0000E+00
  1.2927E-11
  2.5854E-11
  9.6665E-11
  1.1008E-10
  1.2349E-10
  4.8333E-11
  7.9204E-11
  1.1008E-10
  0.0000E+00
  4.8333E-11
  9.6665E-11
  1.0213E-07
  1.0212E-07
  1.0211E-07
  1.0212E-07
  1.0212E-07
  1.0212E-07
  1.0210E-07
  1.0212E-07
  1.0213E-07
  4.0821E-07
  4.0811E-07
  4.0801E-07
  4.0831E-07
  4.0821E-07
  4.0811E-07
  4.0841E-07
  4.0831E-07
  4.0821E-07
  1.5302E-06
  1.5299E-06
  1.5296E-06
  1.5304E-06
  1.5302E-06
  1.5299E-06
  1.5307E-06
  1.5304E-06
  1.5302E-06
  5.8565E-06
  5.8562E-06
  5.8558E-06
  5.8569E-06
  5.8565E-06
  5.8562E-06
  5.8573E-06
  5.8569E-06
  5.8565E-06
  2.1623E-05
  2.1624E-05
  2.1624E-05
  2.1623E-05
  2.1623E-05
  2.1624E-05
  2.1623E-05
  2.1623E-05
  2.1623E-05
  8.0298E-05
  8.0298E-05
  8.0298E-05
  8.0297E-05
  8.0298E-05
  8.0298E-05
  8.0297E-05
  8.0297E-05
  8.0298E-05
  2.9979E-04
  2.9979E-04
  2.9979E-04
  2.9979E-04
  2.9979E-04
  2.9979E-04
  2.9979E-04
  2.9979E-04
  2.9979E-04
  1.1200E-03
  1.1200E-03
  1.1200E-03
  1.1200E-03
  1.1200E-03
  1.1200E-03
  1.1200E-03
  1.1200E-03
  1.1200E-03
  4.1841E-03
  4.1841E-03
  4.1841E-03
  4.1841E-03
  4.1841E-03
  4.1841E-03
  4.1841E-03
  4.1841E-03
  4.1841E-03
  1.5631E-02
  1.5631E-02
  1.5631E-02
  1.5631E-02
  1.5631E-02
  1.5631E-02
  1.5631E-02
  1.5631E-02
  1.5631E-02
  5.8391E-02
  5.8391E-02
  5.8391E-02
  5.8391E-02
  5.8391E-02
  5.8391E-02
  5.8391E-02
  5.8391E-02
  5.8391E-02
  2.1816E-01
  2.1816E-01
  2.1816E-01
  2.1816E-01
  2.1816E-01
  2.1816E-01
  2.1816E-01
  2.1816E-01
  2.1816E-01
  8.1466E-01
  8.1466E-01
  8.1466E-01
  8.1466E-01
  8.1466E-01
  8.1466E-01
  8.1466E-01
  8.1466E-01
  8.1466E-01
  1.2851E+00
  1.2851E+00
  1.2851E+00
  1.2851E+00
  1.2851E+00
  1.2851E+00
  1.2851E+00
  1.2851E+00
  1.2851E+00
   2.7100E-02
  2.3741E-14
  3.2073E-14
  4.0404E-14
  1.1870E-14
  2.1941E-14
  3.2012E-14
  0.0000E+00
  1.1810E-14
  2.3619E-14
  1.0020E-13
  1.2117E-13
  1.4213E-13
  5.0100E-14
  8.5616E-14
  1.2113E-13
  0.0000E+00
  5.0064E-14
  1.0013E-13
  4.5504E-13
  5.3008E-13
  6.0512E-13
  2.2752E-13
  3.7879E-13
  5.3006E-13
  0.0000E+00
  2.2750E-13
  4.5499E-13
  1.8542E-12
  2.1208E-12
  2.3875E-12
  9.2711E-13
  1.5240E-12
  2.1208E-12
  0.0000E+00
  9.2709E-13
  1.8542E-12
  7.0785E-12
  8.0535E-12
  9.0285E-12
  3.5393E-12
  5.7964E-12
  8.0535E-12
  0.0000E+00
  3.5393E-12
  7.0785E-12
  2.6341E-11
  2.9980E-11
  3.3619E-11
  1.3171E-11
  2.1575E-11
  2.9980E-11
  0.0000E+00
  1.3171E-11
  2.6341E-11
  9.8109E-11
  1.1172E-10
  1.2532E-10
  4.9055E-11
  8.0385E-11
  1.1172E-10
  0.0000E+00
  4.9055E-11
  9.8109E-11
  1.0289E-07
  1.0288E-07
  1.0287E-07
  1.0288E-07
  1.0288E-07
  1.0288E-07
  1.0286E-07
  1.0288E-07
  1.0289E-07
  4.1124E-07
  4.1113E-07
  4.1103E-07
  4.1134E-07
  4.1124E-07
  4.1113E-07
  4.1144E-07
  4.1134E-07
  4.1124E-07
  1.5414E-06
  1.5412E-06
  1.5409E-06
  1.5417E-06
  1.5414E-06
  1.5412E-06
  1.5419E-06
  1.5417E-06
  1.5414E-06
  5.8994E-06
  5.8991E-06
  5.8987E-06
  5.8998E-06
  5.8994E-06
  5.8991E-06
  5.9001E-06
  5.8998E-06
  5.8994E-06
  2.1782E-05
  2.1782E-05
  2.1782E-05
  2.1782E-05
  2.1782E-05
  2.1782E-05
  2.1782E-05
  2.1782E-05
  2.1782E-05
  8.0889E-05
  8.0889E-05
  8.0889E-05
  8.0889E-05
  8.0889E-05
  8.0889E-05
  8.0888E-05
  8.0889E-05
  8.0889E-05
  3.0200E-04
  3.0200E-04
  3.0200E-04
  3.0200E-04
  3.0200E-04
  3.0200E-04
  3.0200E-04
  3.0200E-04
  3.0200E-04
  1.1283E-03
  1.1283E-03
  1.1283E-03
  1.1283E-03
  1.1283E-03
  1.1283E-03
  1.1283E-03
  1.1283E-03
  1.1283E-03
  4.2150E-03
  4.2150E-03
  4.2150E-03
  4.2150E-03
  4.2150E-03
  4.2150E-03
  4.2150E-03
  4.2150E-03
  4.2150E-03
  1.5746E-02
  1.5746E-02
  1.5746E-02
  1.5746E-02
  1.5746E-02
  1.5746E-02
  1.5746E-02
  1.5746E-02
  1.5746E-02
  5.8823E-02
  5.8823E-02
  5.8823E-02
  5.8823E-02
  5.8823E-02
  5.8823E-02
  5.8823E-02
  5.8823E-02
  5.8823E-02
  2.1977E-01
  2.1977E-01
  2.1977E-01
  2.1977E-01
  2.1977E-01
  2.1977E-01
  2.1977E-01
  2.1977E-01
  2.1977E-01
  8.2070E-01
  8.2070E-01
  8.2070E-01
  8.2070E-01
  8.2070E-01
  8.2070E-01
  8.2070E-01
  8.2070E-01
  8.2070E-01
  1.2947E+00
  1.2947E+00
  1.2947E+00
  1.2947E+00
  1.2947E+00
  1.2947E+00
  1.2947E+00
  1.2947E+00
  1.2947E+00
   2.7200E-02
  2.4092E-14
  3.2548E-14
  4.1003E-14
  1.2046E-14
  2.2266E-14
  3.2487E-14
  0.0000E+00
  1.1985E-14
  2.3970E-14
  1.0117E-13
  1.2249E-13
  1.4381E-13
  5.0584E-14
  8.6519E-14
  1.2245E-13
  0.0000E+00
  5.0548E-14
  1.0110E-13
  4.5879E-13
  5.3523E-13
  6.1166E-13
  2.2940E-13
  3.8230E-13
  5.3520E-13
  0.0000E+00
  2.2937E-13
  4.5874E-13
  1.8678E-12
  2.1396E-12
  2.4113E-12
  9.3392E-13
  1.5367E-12
  2.1396E-12
  0.0000E+00
  9.3390E-13
  1.8678E-12
  7.1290E-12
  8.1230E-12
  9.1170E-12
  3.5645E-12
  5.8437E-12
  8.1230E-12
  0.0000E+00
  3.5645E-12
  7.1290E-12
  2.6676E-11
  3.0376E-11
  3.4076E-11
  1.3338E-11
  2.1857E-11
  3.0376E-11
  0.0000E+00
  1.3338E-11
  2.6676E-11
  9.9580E-11
  1.1339E-10
  1.2720E-10
  4.9790E-11
  8.1589E-11
  1.1339E-10
  0.0000E+00
  4.9790E-11
  9.9580E-11
  1.0365E-07
  1.0364E-07
  1.0363E-07
  1.0364E-07
  1.0364E-07
  1.0364E-07
  1.0362E-07
  1.0364E-07
  1.0365E-07
  4.1428E-07
  4.1417E-07
  4.1407E-07
  4.1438E-07
  4.1428E-07
  4.1417E-07
  4.1448E-07
  4.1438E-07
  4.1428E-07
  1.5527E-06
  1.5525E-06
  1.5522E-06
  1.5530E-06
  1.5527E-06
  1.5525E-06
  1.5532E-06
  1.5530E-06
  1.5527E-06
  5.9425E-06
  5.9421E-06
  5.9417E-06
  5.9428E-06
  5.9425E-06
  5.9421E-06
  5.9432E-06
  5.9428E-06
  5.9425E-06
  2.1941E-05
  2.1942E-05
  2.1942E-05
  2.1941E-05
  2.1941E-05
  2.1942E-05
  2.1941E-05
  2.1941E-05
  2.1941E-05
  8.1482E-05
  8.1482E-05
  8.1482E-05
  8.1482E-05
  8.1482E-05
  8.1482E-05
  8.1481E-05
  8.1482E-05
  8.1482E-05
  3.0422E-04
  3.0422E-04
  3.0422E-04
  3.0422E-04
  3.0422E-04
  3.0422E-04
  3.0422E-04
  3.0422E-04
  3.0422E-04
  1.1366E-03
  1.1366E-03
  1.1366E-03
  1.1366E-03
  1.1366E-03
  1.1366E-03
  1.1366E-03
  1.1366E-03
  1.1366E-03
  4.2460E-03
  4.2460E-03
  4.2460E-03
  4.2460E-03
  4.2460E-03
  4.2460E-03
  4.2460E-03
  4.2460E-03
  4.2460E-03
  1.5862E-02
  1.5862E-02
  1.5862E-02
  1.5862E-02
  1.5862E-02
  1.5862E-02
  1.5862E-02
  1.5862E-02
  1.5862E-02
  5.9257E-02
  5.9257E-02
  5.9257E-02
  5.9257E-02
  5.9257E-02
  5.9257E-02
  5.9257E-02
  5.9257E-02
  5.9257E-02
  2.2139E-01
  2.2139E-01
  2.2139E-01
  2.2139E-01
  2.2139E-01
  2.2139E-01
  2.2139E-01
  2.2139E-01
  2.2139E-01
  8.2676E-01
  8.2676E-01
  8.2676E-01
  8.2676E-01
  8.2676E-01
  8.2676E-01
  8.2676E-01
  8.2676E-01
  8.2676E-01
  1.3042E+00
  1.3042E+00
  1.3042E+00
  1.3042E+00
  1.3042E+00
  1.3042E+00
  1.3042E+00
  1.3042E+00
  1.3042E+00
   2.7300E-02
  2.4448E-14
  3.3028E-14
  4.1609E-14
  1.2224E-14
  2.2595E-14
  3.2967E-14
  0.0000E+00
  1.2162E-14
  2.4324E-14
  1.0215E-13
  1.2383E-13
  1.4551E-13
  5.1075E-14
  8.7434E-14
  1.2379E-13
  0.0000E+00
  5.1038E-14
  1.0208E-13
  4.6259E-13
  5.4044E-13
  6.1829E-13
  2.3130E-13
  3.8586E-13
  5.4042E-13
  0.0000E+00
  2.3127E-13
  4.6255E-13
  1.8817E-12
  2.1586E-12
  2.4355E-12
  9.4083E-13
  1.5497E-12
  2.1586E-12
  0.0000E+00
  9.4082E-13
  1.8816E-12
  7.2533E-12
  8.2616E-12
  9.2698E-12
  3.6266E-12
  5.9441E-12
  8.2616E-12
  0.0000E+00
  3.6267E-12
  7.2533E-12
  2.7104E-11
  3.0854E-11
  3.4605E-11
  1.3552E-11
  2.2203E-11
  3.0854E-11
  0.0000E+00
  1.3552E-11
  2.7104E-11
  1.0105E-10
  1.1506E-10
  1.2907E-10
  5.0525E-11
  8.2793E-11
  1.1506E-10
  0.0000E+00
  5.0525E-11
  1.0105E-10
  1.0442E-07
  1.0440E-07
  1.0439E-07
  1.0440E-07
  1.0440E-07
  1.0440E-07
  1.0438E-07
  1.0440E-07
  1.0442E-07
  4.1733E-07
  4.1722E-07
  4.1712E-07
  4.1743E-07
  4.1733E-07
  4.1722E-07
  4.1754E-07
  4.1743E-07
  4.1733E-07
  1.5641E-06
  1.5638E-06
  1.5635E-06
  1.5643E-06
  1.5641E-06
  1.5638E-06
  1.5646E-06
  1.5643E-06
  1.5641E-06
  5.9856E-06
  5.9853E-06
  5.9849E-06
  5.9860E-06
  5.9856E-06
  5.9853E-06
  5.9864E-06
  5.9860E-06
  5.9856E-06
  2.2101E-05
  2.2101E-05
  2.2102E-05
  2.2101E-05
  2.2101E-05
  2.2101E-05
  2.2101E-05
  2.2101E-05
  2.2101E-05
  8.2077E-05
  8.2078E-05
  8.2078E-05
  8.2077E-05
  8.2077E-05
  8.2078E-05
  8.2077E-05
  8.2077E-05
  8.2077E-05
  3.0644E-04
  3.0644E-04
  3.0644E-04
  3.0644E-04
  3.0644E-04
  3.0644E-04
  3.0644E-04
  3.0644E-04
  3.0644E-04
  1.1449E-03
  1.1449E-03
  1.1449E-03
  1.1449E-03
  1.1449E-03
  1.1449E-03
  1.1449E-03
  1.1449E-03
  1.1449E-03
  4.2772E-03
  4.2772E-03
  4.2772E-03
  4.2772E-03
  4.2772E-03
  4.2772E-03
  4.2772E-03
  4.2772E-03
  4.2772E-03
  1.5979E-02
  1.5979E-02
  1.5979E-02
  1.5979E-02
  1.5979E-02
  1.5979E-02
  1.5979E-02
  1.5979E-02
  1.5979E-02
  5.9692E-02
  5.9692E-02
  5.9692E-02
  5.9692E-02
  5.9692E-02
  5.9692E-02
  5.9692E-02
  5.9692E-02
  5.9692E-02
  2.2302E-01
  2.2302E-01
  2.2302E-01
  2.2302E-01
  2.2302E-01
  2.2302E-01
  2.2302E-01
  2.2302E-01
  2.2302E-01
  8.3285E-01
  8.3285E-01
  8.3285E-01
  8.3285E-01
  8.3285E-01
  8.3285E-01
  8.3285E-01
  8.3285E-01
  8.3285E-01
  1.3138E+00
  1.3138E+00
  1.3138E+00
  1.3138E+00
  1.3138E+00
  1.3138E+00
  1.3138E+00
  1.3138E+00
  1.3138E+00
   2.7400E-02
  2.4807E-14
  3.3514E-14
  4.2221E-14
  1.2404E-14
  2.2928E-14
  3.3452E-14
  0.0000E+00
  1.2341E-14
  2.4683E-14
  1.0314E-13
  1.2519E-13
  1.4723E-13
  5.1572E-14
  8.8361E-14
  1.2515E-13
  0.0000E+00
  5.1535E-14
  1.0307E-13
  4.6645E-13
  5.4573E-13
  6.2500E-13
  2.3322E-13
  3.8946E-13
  5.4570E-13
  0.0000E+00
  2.3320E-13
  4.6640E-13
  1.8957E-12
  2.1779E-12
  2.4601E-12
  9.4784E-13
  1.5629E-12
  2.1779E-12
  0.0000E+00
  9.4783E-13
  1.8957E-12
  7.3050E-12
  8.3327E-12
  9.3605E-12
  3.6525E-12
  5.9926E-12
  8.3327E-12
  0.0000E+00
  3.6525E-12
  7.3050E-12
  2.7443E-11
  3.1256E-11
  3.5069E-11
  1.3721E-11
  2.2489E-11
  3.1256E-11
  0.0000E+00
  1.3722E-11
  2.7443E-11
  1.0254E-10
  1.1676E-10
  1.3097E-10
  5.1268E-11
  8.4011E-11
  1.1676E-10
  0.0000E+00
  5.1268E-11
  1.0254E-10
  1.0518E-07
  1.0517E-07
  1.0516E-07
  1.0517E-07
  1.0517E-07
  1.0517E-07
  1.0515E-07
  1.0517E-07
  1.0518E-07
  4.2039E-07
  4.2028E-07
  4.2017E-07
  4.2050E-07
  4.2039E-07
  4.2028E-07
  4.2060E-07
  4.2050E-07
  4.2039E-07
  1.5754E-06
  1.5752E-06
  1.5749E-06
  1.5757E-06
  1.5754E-06
  1.5752E-06
  1.5760E-06
  1.5757E-06
  1.5754E-06
  6.0290E-06
  6.0286E-06
  6.0282E-06
  6.0293E-06
  6.0290E-06
  6.0286E-06
  6.0297E-06
  6.0293E-06
  6.0290E-06
  2.2262E-05
  2.2262E-05
  2.2262E-05
  2.2262E-05
  2.2262E-05
  2.2262E-05
  2.2261E-05
  2.2262E-05
  2.2262E-05
  8.2675E-05
  8.2675E-05
  8.2675E-05
  8.2674E-05
  8.2675E-05
  8.2675E-05
  8.2674E-05
  8.2674E-05
  8.2675E-05
  3.0868E-04
  3.0868E-04
  3.0868E-04
  3.0868E-04
  3.0868E-04
  3.0868E-04
  3.0868E-04
  3.0868E-04
  3.0868E-04
  1.1532E-03
  1.1532E-03
  1.1532E-03
  1.1532E-03
  1.1532E-03
  1.1532E-03
  1.1532E-03
  1.1532E-03
  1.1532E-03
  4.3084E-03
  4.3084E-03
  4.3084E-03
  4.3084E-03
  4.3084E-03
  4.3084E-03
  4.3084E-03
  4.3084E-03
  4.3084E-03
  1.6096E-02
  1.6096E-02
  1.6096E-02
  1.6096E-02
  1.6096E-02
  1.6096E-02
  1.6096E-02
  1.6096E-02
  1.6096E-02
  6.0129E-02
  6.0129E-02
  6.0129E-02
  6.0129E-02
  6.0129E-02
  6.0129E-02
  6.0129E-02
  6.0129E-02
  6.0129E-02
  2.2466E-01
  2.2466E-01
  2.2466E-01
  2.2466E-01
  2.2466E-01
  2.2466E-01
  2.2466E-01
  2.2466E-01
  2.2466E-01
  8.3895E-01
  8.3895E-01
  8.3895E-01
  8.3895E-01
  8.3895E-01
  8.3895E-01
  8.3895E-01
  8.3895E-01
  8.3895E-01
  1.3235E+00
  1.3235E+00
  1.3235E+00
  1.3235E+00
  1.3235E+00
  1.3235E+00
  1.3235E+00
  1.3235E+00
  1.3235E+00
   2.7500E-02
  2.5170E-14
  3.4005E-14
  4.2840E-14
  1.2585E-14
  2.3264E-14
  3.3943E-14
  0.0000E+00
  1.2523E-14
  2.5045E-14
  1.0415E-13
  1.2656E-13
  1.4897E-13
  5.2075E-14
  8.9300E-14
  1.2653E-13
  0.0000E+00
  5.2038E-14
  1.0408E-13
  4.7036E-13
  5.5108E-13
  6.3181E-13
  2.3518E-13
  3.9312E-13
  5.5106E-13
  0.0000E+00
  2.3515E-13
  4.7031E-13
  1.9465E-12
  2.2315E-12
  2.5165E-12
  9.7325E-13
  1.6024E-12
  2.2315E-12
  0.0000E+00
  9.7323E-13
  1.9465E-12
  7.4942E-12
  8.5296E-12
  9.5650E-12
  3.7471E-12
  6.1384E-12
  8.5296E-12
  0.0000E+00
  3.7471E-12
  7.4942E-12
  2.7939E-11
  3.1797E-11
  3.5655E-11
  1.3969E-11
  2.2883E-11
  3.1797E-11
  0.0000E+00
  1.3969E-11
  2.7939E-11
  1.0408E-10
  1.1851E-10
  1.3293E-10
  5.2042E-11
  8.5274E-11
  1.1851E-10
  0.0000E+00
  5.2042E-11
  1.0408E-10
  1.0595E-07
  1.0594E-07
  1.0593E-07
  1.0594E-07
  1.0594E-07
  1.0594E-07
  1.0592E-07
  1.0594E-07
  1.0595E-07
  4.2346E-07
  4.2335E-07
  4.2324E-07
  4.2357E-07
  4.2346E-07
  4.2335E-07
  4.2368E-07
  4.2357E-07
  4.2346E-07
  1.5868E-06
  1.5866E-06
  1.5863E-06
  1.5871E-06
  1.5868E-06
  1.5866E-06
  1.5874E-06
  1.5871E-06
  1.5868E-06
  6.0724E-06
  6.0721E-06
  6.0717E-06
  6.0728E-06
  6.0724E-06
  6.0721E-06
  6.0732E-06
  6.0728E-06
  6.0724E-06
  2.2423E-05
  2.2423E-05
  2.2423E-05
  2.2423E-05
  2.2423E-05
  2.2423E-05
  2.2422E-05
  2.2423E-05
  2.2423E-05
  8.3274E-05
  8.3275E-05
  8.3275E-05
  8.3274E-05
  8.3274E-05
  8.3275E-05
  8.3274E-05
  8.3274E-05
  8.3274E-05
  3.1092E-04
  3.1092E-04
  3.1092E-04
  3.1092E-04
  3.1092E-04
  3.1092E-04
  3.1092E-04
  3.1092E-04
  3.1092E-04
  1.1616E-03
  1.1616E-03
  1.1616E-03
  1.1616E-03
  1.1616E-03
  1.1616E-03
  1.1616E-03
  1.1616E-03
  1.1616E-03
  4.3398E-03
  4.3398E-03
  4.3398E-03
  4.3398E-03
  4.3398E-03
  4.3398E-03
  4.3398E-03
  4.3398E-03
  4.3398E-03
  1.6213E-02
  1.6213E-02
  1.6213E-02
  1.6213E-02
  1.6213E-02
  1.6213E-02
  1.6213E-02
  1.6213E-02
  1.6213E-02
  6.0568E-02
  6.0568E-02
  6.0568E-02
  6.0568E-02
  6.0568E-02
  6.0568E-02
  6.0568E-02
  6.0568E-02
  6.0568E-02
  2.2630E-01
  2.2630E-01
  2.2630E-01
  2.2630E-01
  2.2630E-01
  2.2630E-01
  2.2630E-01
  2.2630E-01
  2.2630E-01
  8.4508E-01
  8.4508E-01
  8.4508E-01
  8.4508E-01
  8.4508E-01
  8.4508E-01
  8.4508E-01
  8.4508E-01
  8.4508E-01
  1.3331E+00
  1.3331E+00
  1.3331E+00
  1.3331E+00
  1.3331E+00
  1.3331E+00
  1.3331E+00
  1.3331E+00
  1.3331E+00
   2.7600E-02
  2.5538E-14
  3.4502E-14
  4.3466E-14
  1.2769E-14
  2.3604E-14
  3.4439E-14
  0.0000E+00
  1.2706E-14
  2.5411E-14
  1.0517E-13
  1.2795E-13
  1.5074E-13
  5.2585E-14
  9.0251E-14
  1.2792E-13
  0.0000E+00
  5.2547E-14
  1.0509E-13
  5.4728E-13
  6.2440E-13
  7.0152E-13
  2.7364E-13
  4.4901E-13
  6.2438E-13
  0.0000E+00
  2.7362E-13
  5.4723E-13
  2.0878E-12
  2.3640E-12
  2.6402E-12
  1.0439E-12
  1.7039E-12
  2.3640E-12
  0.0000E+00
  1.0439E-12
  2.0878E-12
  7.6010E-12
  8.6472E-12
  9.6934E-12
  3.8005E-12
  6.2238E-12
  8.6472E-12
  0.0000E+00
  3.8005E-12
  7.6010E-12
  2.8245E-11
  3.2170E-11
  3.6095E-11
  1.4123E-11
  2.3146E-11
  3.2170E-11
  0.0000E+00
  1.4123E-11
  2.8245E-11
  1.0552E-10
  1.2017E-10
  1.3481E-10
  5.2761E-11
  8.6463E-11
  1.2017E-10
  0.0000E+00
  5.2762E-11
  1.0552E-10
  1.0673E-07
  1.0671E-07
  1.0670E-07
  1.0671E-07
  1.0671E-07
  1.0671E-07
  1.0669E-07
  1.0671E-07
  1.0673E-07
  4.2654E-07
  4.2643E-07
  4.2632E-07
  4.2666E-07
  4.2654E-07
  4.2643E-07
  4.2677E-07
  4.2666E-07
  4.2654E-07
  1.5983E-06
  1.5980E-06
  1.5978E-06
  1.5986E-06
  1.5983E-06
  1.5980E-06
  1.5988E-06
  1.5986E-06
  1.5983E-06
  6.1161E-06
  6.1157E-06
  6.1153E-06
  6.1164E-06
  6.1161E-06
  6.1157E-06
  6.1168E-06
  6.1164E-06
  6.1161E-06
  2.2584E-05
  2.2584E-05
  2.2585E-05
  2.2584E-05
  2.2584E-05
  2.2584E-05
  2.2584E-05
  2.2584E-05
  2.2584E-05
  8.3876E-05
  8.3876E-05
  8.3876E-05
  8.3876E-05
  8.3876E-05
  8.3876E-05
  8.3875E-05
  8.3876E-05
  8.3876E-05
  3.1317E-04
  3.1317E-04
  3.1317E-04
  3.1317E-04
  3.1317E-04
  3.1317E-04
  3.1317E-04
  3.1317E-04
  3.1317E-04
  1.1700E-03
  1.1700E-03
  1.1700E-03
  1.1700E-03
  1.1700E-03
  1.1700E-03
  1.1700E-03
  1.1700E-03
  1.1700E-03
  4.3712E-03
  4.3712E-03
  4.3712E-03
  4.3712E-03
  4.3712E-03
  4.3712E-03
  4.3712E-03
  4.3712E-03
  4.3712E-03
  1.6331E-02
  1.6331E-02
  1.6331E-02
  1.6331E-02
  1.6331E-02
  1.6331E-02
  1.6331E-02
  1.6331E-02
  1.6331E-02
  6.1008E-02
  6.1008E-02
  6.1008E-02
  6.1008E-02
  6.1008E-02
  6.1008E-02
  6.1008E-02
  6.1008E-02
  6.1008E-02
  2.2794E-01
  2.2794E-01
  2.2794E-01
  2.2794E-01
  2.2794E-01
  2.2794E-01
  2.2794E-01
  2.2794E-01
  2.2794E-01
  8.5123E-01
  8.5123E-01
  8.5123E-01
  8.5123E-01
  8.5123E-01
  8.5123E-01
  8.5123E-01
  8.5123E-01
  8.5123E-01
  1.3428E+00
  1.3428E+00
  1.3428E+00
  1.3428E+00
  1.3428E+00
  1.3428E+00
  1.3428E+00
  1.3428E+00
  1.3428E+00
   2.7700E-02
  2.5909E-14
  3.5004E-14
  4.4099E-14
  1.2954E-14
  2.3947E-14
  3.4940E-14
  0.0000E+00
  1.2891E-14
  2.5782E-14
  1.0620E-13
  1.2936E-13
  1.5252E-13
  5.3101E-14
  9.1213E-14
  1.2932E-13
  0.0000E+00
  5.3063E-14
  1.0613E-13
  5.5106E-13
  6.2960E-13
  7.0815E-13
  2.7553E-13
  4.5256E-13
  6.2958E-13
  0.0000E+00
  2.7551E-13
  5.5101E-13
  2.1019E-12
  2.3835E-12
  2.6650E-12
  1.0510E-12
  1.7172E-12
  2.3835E-12
  0.0000E+00
  1.0509E-12
  2.1019E-12
  7.7275E-12
  8.7888E-12
  9.8501E-12
  3.8637E-12
  6.3263E-12
  8.7888E-12
  0.0000E+00
  3.8637E-12
  7.7275E-12
  2.8718E-11
  3.2694E-11
  3.6670E-11
  1.4359E-11
  2.3527E-11
  3.2694E-11
  0.0000E+00
  1.4359E-11
  2.8718E-11
  1.0709E-10
  1.2194E-10
  1.3679E-10
  5.3544E-11
  8.7741E-11
  1.2194E-10
  0.0000E+00
  5.3544E-11
  1.0709E-10
  1.0750E-07
  1.0749E-07
  1.0747E-07
  1.0748E-07
  1.0749E-07
  1.0749E-07
  1.0747E-07
  1.0748E-07
  1.0750E-07
  4.2964E-07
  4.2953E-07
  4.2942E-07
  4.2975E-07
  4.2964E-07
  4.2953E-07
  4.2986E-07
  4.2975E-07
  4.2964E-07
  1.6098E-06
  1.6095E-06
  1.6092E-06
  1.6100E-06
  1.6098E-06
  1.6095E-06
  1.6103E-06
  1.6100E-06
  1.6098E-06
  6.1598E-06
  6.1595E-06
  6.1591E-06
  6.1602E-06
  6.1598E-06
  6.1595E-06
  6.1605E-06
  6.1602E-06
  6.1598E-06
  2.2746E-05
  2.2746E-05
  2.2747E-05
  2.2746E-05
  2.2746E-05
  2.2746E-05
  2.2746E-05
  2.2746E-05
  2.2746E-05
  8.4480E-05
  8.4480E-05
  8.4480E-05
  8.4479E-05
  8.4480E-05
  8.4480E-05
  8.4479E-05
  8.4479E-05
  8.4480E-05
  3.1543E-04
  3.1543E-04
  3.1543E-04
  3.1543E-04
  3.1543E-04
  3.1543E-04
  3.1543E-04
  3.1543E-04
  3.1543E-04
  1.1785E-03
  1.1785E-03
  1.1785E-03
  1.1785E-03
  1.1785E-03
  1.1785E-03
  1.1785E-03
  1.1785E-03
  1.1785E-03
  4.4028E-03
  4.4028E-03
  4.4028E-03
  4.4028E-03
  4.4028E-03
  4.4028E-03
  4.4028E-03
  4.4028E-03
  4.4028E-03
  1.6449E-02
  1.6449E-02
  1.6449E-02
  1.6449E-02
  1.6449E-02
  1.6449E-02
  1.6449E-02
  1.6449E-02
  1.6449E-02
  6.1449E-02
  6.1449E-02
  6.1449E-02
  6.1449E-02
  6.1449E-02
  6.1449E-02
  6.1449E-02
  6.1449E-02
  6.1449E-02
  2.2959E-01
  2.2959E-01
  2.2959E-01
  2.2959E-01
  2.2959E-01
  2.2959E-01
  2.2959E-01
  2.2959E-01
  2.2959E-01
  8.5740E-01
  8.5740E-01
  8.5740E-01
  8.5740E-01
  8.5740E-01
  8.5740E-01
  8.5740E-01
  8.5740E-01
  8.5740E-01
  1.3526E+00
  1.3526E+00
  1.3526E+00
  1.3526E+00
  1.3526E+00
  1.3526E+00
  1.3526E+00
  1.3526E+00
  1.3526E+00
   2.7800E-02
  2.6284E-14
  3.5511E-14
  4.4739E-14
  1.3142E-14
  2.4295E-14
  3.5447E-14
  0.0000E+00
  1.3078E-14
  2.6156E-14
  1.0725E-13
  1.3079E-13
  1.5433E-13
  5.3623E-14
  9.2187E-14
  1.3075E-13
  0.0000E+00
  5.3585E-14
  1.0717E-13
  5.5489E-13
  6.3488E-13
  7.1487E-13
  2.7745E-13
  4.5615E-13
  6.3486E-13
  0.0000E+00
  2.7742E-13
  5.5485E-13
  2.1163E-12
  2.4032E-12
  2.6902E-12
  1.0581E-12
  1.7307E-12
  2.4032E-12
  0.0000E+00
  1.0581E-12
  2.1162E-12
  7.7813E-12
  8.8630E-12
  9.9446E-12
  3.8907E-12
  6.3768E-12
  8.8630E-12
  0.0000E+00
  3.8907E-12
  7.7814E-12
  2.9066E-11
  3.3108E-11
  3.7149E-11
  1.4533E-11
  2.3820E-11
  3.3108E-11
  0.0000E+00
  1.4533E-11
  2.9066E-11
  1.0861E-10
  1.2368E-10
  1.3875E-10
  5.4303E-11
  8.8990E-11
  1.2368E-10
  0.0000E+00
  5.4303E-11
  1.0861E-10
  1.0828E-07
  1.0826E-07
  1.0825E-07
  1.0826E-07
  1.0826E-07
  1.0826E-07
  1.0824E-07
  1.0826E-07
  1.0828E-07
  4.3275E-07
  4.3263E-07
  4.3252E-07
  4.3286E-07
  4.3275E-07
  4.3263E-07
  4.3297E-07
  4.3286E-07
  4.3275E-07
  1.6213E-06
  1.6210E-06
  1.6208E-06
  1.6216E-06
  1.6213E-06
  1.6210E-06
  1.6218E-06
  1.6216E-06
  1.6213E-06
  6.2037E-06
  6.2034E-06
  6.2030E-06
  6.2041E-06
  6.2037E-06
  6.2034E-06
  6.2045E-06
  6.2041E-06
  6.2037E-06
  2.2909E-05
  2.2909E-05
  2.2909E-05
  2.2909E-05
  2.2909E-05
  2.2909E-05
  2.2909E-05
  2.2909E-05
  2.2909E-05
  8.5086E-05
  8.5086E-05
  8.5086E-05
  8.5085E-05
  8.5086E-05
  8.5086E-05
  8.5085E-05
  8.5085E-05
  8.5086E-05
  3.1769E-04
  3.1769E-04
  3.1769E-04
  3.1769E-04
  3.1769E-04
  3.1769E-04
  3.1769E-04
  3.1769E-04
  3.1769E-04
  1.1869E-03
  1.1869E-03
  1.1869E-03
  1.1869E-03
  1.1869E-03
  1.1869E-03
  1.1869E-03
  1.1869E-03
  1.1869E-03
  4.4345E-03
  4.4345E-03
  4.4345E-03
  4.4345E-03
  4.4345E-03
  4.4345E-03
  4.4345E-03
  4.4345E-03
  4.4345E-03
  1.6567E-02
  1.6567E-02
  1.6567E-02
  1.6567E-02
  1.6567E-02
  1.6567E-02
  1.6567E-02
  1.6567E-02
  1.6567E-02
  6.1892E-02
  6.1892E-02
  6.1892E-02
  6.1892E-02
  6.1892E-02
  6.1892E-02
  6.1892E-02
  6.1892E-02
  6.1892E-02
  2.3125E-01
  2.3125E-01
  2.3125E-01
  2.3125E-01
  2.3125E-01
  2.3125E-01
  2.3125E-01
  2.3125E-01
  2.3125E-01
  8.6360E-01
  8.6360E-01
  8.6360E-01
  8.6360E-01
  8.6360E-01
  8.6360E-01
  8.6360E-01
  8.6360E-01
  8.6360E-01
  1.3623E+00
  1.3623E+00
  1.3623E+00
  1.3623E+00
  1.3623E+00
  1.3623E+00
  1.3623E+00
  1.3623E+00
  1.3623E+00
   2.7900E-02
  2.6663E-14
  3.6024E-14
  4.5385E-14
  1.3332E-14
  2.4646E-14
  3.5960E-14
  0.0000E+00
  1.3267E-14
  2.6534E-14
  1.0830E-13
  1.3223E-13
  1.5616E-13
  5.4152E-14
  9.3174E-14
  1.3219E-13
  0.0000E+00
  5.4114E-14
  1.0823E-13
  5.5878E-13
  6.4023E-13
  7.2168E-13
  2.7939E-13
  4.5980E-13
  6.4020E-13
  0.0000E+00
  2.7937E-13
  5.5873E-13
  2.1673E-12
  2.4573E-12
  2.7472E-12
  1.0837E-12
  1.7705E-12
  2.4573E-12
  0.0000E+00
  1.0837E-12
  2.1673E-12
  7.9727E-12
  9.0628E-12
  1.0153E-11
  3.9863E-12
  6.5246E-12
  9.0628E-12
  0.0000E+00
  3.9864E-12
  7.9727E-12
  2.9570E-11
  3.3660E-11
  3.7750E-11
  1.4785E-11
  2.4223E-11
  3.3660E-11
  0.0000E+00
  1.4785E-11
  2.9570E-11
  1.1019E-10
  1.2547E-10
  1.4076E-10
  5.5093E-11
  9.0282E-11
  1.2547E-10
  0.0000E+00
  5.5093E-11
  1.1019E-10
  1.0906E-07
  1.0905E-07
  1.0903E-07
  1.0904E-07
  1.0904E-07
  1.0905E-07
  1.0902E-07
  1.0904E-07
  1.0906E-07
  4.3586E-07
  4.3575E-07
  4.3563E-07
  4.3598E-07
  4.3586E-07
  4.3575E-07
  4.3609E-07
  4.3598E-07
  4.3586E-07
  1.6329E-06
  1.6326E-06
  1.6323E-06
  1.6331E-06
  1.6329E-06
  1.6326E-06
  1.6334E-06
  1.6331E-06
  1.6329E-06
  6.2478E-06
  6.2474E-06
  6.2470E-06
  6.2481E-06
  6.2478E-06
  6.2474E-06
  6.2485E-06
  6.2481E-06
  6.2478E-06
  2.3072E-05
  2.3072E-05
  2.3073E-05
  2.3072E-05
  2.3072E-05
  2.3072E-05
  2.3072E-05
  2.3072E-05
  2.3072E-05
  8.5694E-05
  8.5694E-05
  8.5694E-05
  8.5693E-05
  8.5694E-05
  8.5694E-05
  8.5693E-05
  8.5693E-05
  8.5694E-05
  3.1996E-04
  3.1996E-04
  3.1996E-04
  3.1996E-04
  3.1996E-04
  3.1996E-04
  3.1996E-04
  3.1996E-04
  3.1996E-04
  1.1954E-03
  1.1954E-03
  1.1954E-03
  1.1954E-03
  1.1954E-03
  1.1954E-03
  1.1954E-03
  1.1954E-03
  1.1954E-03
  4.4663E-03
  4.4663E-03
  4.4663E-03
  4.4663E-03
  4.4663E-03
  4.4663E-03
  4.4663E-03
  4.4663E-03
  4.4663E-03
  1.6686E-02
  1.6686E-02
  1.6686E-02
  1.6686E-02
  1.6686E-02
  1.6686E-02
  1.6686E-02
  1.6686E-02
  1.6686E-02
  6.2337E-02
  6.2337E-02
  6.2337E-02
  6.2337E-02
  6.2337E-02
  6.2337E-02
  6.2337E-02
  6.2337E-02
  6.2337E-02
  2.3292E-01
  2.3292E-01
  2.3292E-01
  2.3292E-01
  2.3292E-01
  2.3292E-01
  2.3292E-01
  2.3292E-01
  2.3292E-01
  8.6981E-01
  8.6981E-01
  8.6981E-01
  8.6981E-01
  8.6981E-01
  8.6981E-01
  8.6981E-01
  8.6981E-01
  8.6981E-01
  1.3721E+00
  1.3721E+00
  1.3721E+00
  1.3721E+00
  1.3721E+00
  1.3721E+00
  1.3721E+00
  1.3721E+00
  1.3721E+00
   2.8000E-02
  2.7047E-14
  3.6543E-14
  4.6038E-14
  1.3523E-14
  2.5000E-14
  3.6478E-14
  0.0000E+00
  1.3458E-14
  2.6917E-14
  1.0938E-13
  1.3369E-13
  1.5801E-13
  5.4688E-14
  9.4172E-14
  1.3366E-13
  0.0000E+00
  5.4650E-14
  1.0930E-13
  5.6272E-13
  6.4565E-13
  7.2858E-13
  2.8136E-13
  4.6349E-13
  6.4562E-13
  0.0000E+00
  2.8134E-13
  5.6267E-13
  2.1820E-12
  2.4774E-12
  2.7729E-12
  1.0910E-12
  1.7842E-12
  2.4774E-12
  0.0000E+00
  1.0910E-12
  2.1819E-12
  8.0277E-12
  9.1385E-12
  1.0249E-11
  4.0138E-12
  6.5762E-12
  9.1385E-12
  0.0000E+00
  4.0138E-12
  8.0277E-12
  2.9922E-11
  3.4079E-11
  3.8237E-11
  1.4961E-11
  2.4520E-11
  3.4079E-11
  0.0000E+00
  1.4961E-11
  2.9922E-11
  1.1179E-10
  1.2730E-10
  1.4281E-10
  5.5897E-11
  9.1599E-11
  1.2730E-10
  0.0000E+00
  5.5897E-11
  1.1179E-10
  1.0984E-07
  1.0983E-07
  1.0981E-07
  1.0982E-07
  1.0983E-07
  1.0983E-07
  1.0981E-07
  1.0982E-07
  1.0984E-07
  4.3899E-07
  4.3887E-07
  4.3876E-07
  4.3911E-07
  4.3899E-07
  4.3887E-07
  4.3922E-07
  4.3911E-07
  4.3899E-07
  1.6444E-06
  1.6442E-06
  1.6439E-06
  1.6447E-06
  1.6444E-06
  1.6442E-06
  1.6450E-06
  1.6447E-06
  1.6444E-06
  6.2920E-06
  6.2916E-06
  6.2912E-06
  6.2923E-06
  6.2920E-06
  6.2916E-06
  6.2927E-06
  6.2923E-06
  6.2920E-06
  2.3236E-05
  2.3236E-05
  2.3236E-05
  2.3236E-05
  2.3236E-05
  2.3236E-05
  2.3236E-05
  2.3236E-05
  2.3236E-05
  8.6304E-05
  8.6304E-05
  8.6304E-05
  8.6303E-05
  8.6304E-05
  8.6304E-05
  8.6303E-05
  8.6303E-05
  8.6304E-05
  3.2225E-04
  3.2225E-04
  3.2225E-04
  3.2225E-04
  3.2225E-04
  3.2225E-04
  3.2225E-04
  3.2225E-04
  3.2225E-04
  1.2040E-03
  1.2040E-03
  1.2040E-03
  1.2040E-03
  1.2040E-03
  1.2040E-03
  1.2040E-03
  1.2040E-03
  1.2040E-03
  4.4982E-03
  4.4982E-03
  4.4982E-03
  4.4982E-03
  4.4982E-03
  4.4982E-03
  4.4982E-03
  4.4982E-03
  4.4982E-03
  1.6805E-02
  1.6805E-02
  1.6805E-02
  1.6805E-02
  1.6805E-02
  1.6805E-02
  1.6805E-02
  1.6805E-02
  1.6805E-02
  6.2783E-02
  6.2783E-02
  6.2783E-02
  6.2783E-02
  6.2783E-02
  6.2783E-02
  6.2783E-02
  6.2783E-02
  6.2783E-02
  2.3458E-01
  2.3458E-01
  2.3458E-01
  2.3458E-01
  2.3458E-01
  2.3458E-01
  2.3458E-01
  2.3458E-01
  2.3458E-01
  8.7605E-01
  8.7605E-01
  8.7605E-01
  8.7605E-01
  8.7605E-01
  8.7605E-01
  8.7605E-01
  8.7605E-01
  8.7605E-01
  1.3820E+00
  1.3820E+00
  1.3820E+00
  1.3820E+00
  1.3820E+00
  1.3820E+00
  1.3820E+00
  1.3820E+00
  1.3820E+00
   2.8100E-02
  2.7434E-14
  3.7066E-14
  4.6699E-14
  1.3717E-14
  2.5359E-14
  3.7001E-14
  0.0000E+00
  1.3652E-14
  2.7303E-14
  1.1046E-13
  1.3517E-13
  1.5989E-13
  5.5230E-14
  9.5183E-14
  1.3514E-13
  0.0000E+00
  5.5192E-14
  1.1038E-13
  5.6671E-13
  6.5114E-13
  7.3557E-13
  2.8336E-13
  4.6724E-13
  6.5112E-13
  0.0000E+00
  2.8333E-13
  5.6666E-13
  2.1968E-12
  2.4979E-12
  2.7990E-12
  1.0984E-12
  1.7981E-12
  2.4979E-12
  0.0000E+00
  1.0984E-12
  2.1968E-12
  8.1565E-12
  9.2834E-12
  1.0410E-11
  4.0783E-12
  6.6808E-12
  9.2834E-12
  0.0000E+00
  4.0783E-12
  8.1566E-12
  3.0404E-11
  3.4615E-11
  3.8827E-11
  1.5202E-11
  2.4909E-11
  3.4615E-11
  0.0000E+00
  1.5202E-11
  3.0404E-11
  1.1339E-10
  1.2912E-10
  1.4484E-10
  5.6696E-11
  9.2907E-11
  1.2912E-10
  0.0000E+00
  5.6696E-11
  1.1339E-10
  1.1063E-07
  1.1061E-07
  1.1060E-07
  1.1061E-07
  1.1061E-07
  1.1061E-07
  1.1059E-07
  1.1061E-07
  1.1063E-07
  4.4213E-07
  4.4201E-07
  4.4189E-07
  4.4225E-07
  4.4213E-07
  4.4201E-07
  4.4237E-07
  4.4225E-07
  4.4213E-07
  1.6561E-06
  1.6558E-06
  1.6555E-06
  1.6563E-06
  1.6561E-06
  1.6558E-06
  1.6566E-06
  1.6563E-06
  1.6561E-06
  6.3363E-06
  6.3360E-06
  6.3356E-06
  6.3367E-06
  6.3363E-06
  6.3360E-06
  6.3370E-06
  6.3367E-06
  6.3363E-06
  2.3400E-05
  2.3401E-05
  2.3401E-05
  2.3400E-05
  2.3400E-05
  2.3401E-05
  2.3400E-05
  2.3400E-05
  2.3400E-05
  8.6916E-05
  8.6916E-05
  8.6916E-05
  8.6916E-05
  8.6916E-05
  8.6916E-05
  8.6915E-05
  8.6916E-05
  8.6916E-05
  3.2453E-04
  3.2453E-04
  3.2453E-04
  3.2453E-04
  3.2453E-04
  3.2453E-04
  3.2453E-04
  3.2453E-04
  3.2453E-04
  1.2125E-03
  1.2125E-03
  1.2125E-03
  1.2125E-03
  1.2125E-03
  1.2125E-03
  1.2125E-03
  1.2125E-03
  1.2125E-03
  4.5302E-03
  4.5302E-03
  4.5302E-03
  4.5302E-03
  4.5302E-03
  4.5302E-03
  4.5302E-03
  4.5302E-03
  4.5302E-03
  1.6925E-02
  1.6925E-02
  1.6925E-02
  1.6925E-02
  1.6925E-02
  1.6925E-02
  1.6925E-02
  1.6925E-02
  1.6925E-02
  6.3231E-02
  6.3231E-02
  6.3231E-02
  6.3231E-02
  6.3231E-02
  6.3231E-02
  6.3231E-02
  6.3231E-02
  6.3231E-02
  2.3626E-01
  2.3626E-01
  2.3626E-01
  2.3626E-01
  2.3626E-01
  2.3626E-01
  2.3626E-01
  2.3626E-01
  2.3626E-01
  8.8231E-01
  8.8231E-01
  8.8231E-01
  8.8231E-01
  8.8231E-01
  8.8231E-01
  8.8231E-01
  8.8231E-01
  8.8231E-01
  1.3919E+00
  1.3919E+00
  1.3919E+00
  1.3919E+00
  1.3919E+00
  1.3919E+00
  1.3919E+00
  1.3919E+00
  1.3919E+00
   2.8200E-02
  2.7826E-14
  3.7596E-14
  4.7367E-14
  1.3913E-14
  2.5722E-14
  3.7530E-14
  0.0000E+00
  1.3847E-14
  2.7694E-14
  1.1156E-13
  1.3667E-13
  1.6178E-13
  5.5779E-14
  9.6206E-14
  1.3663E-13
  0.0000E+00
  5.5740E-14
  1.1148E-13
  5.7076E-13
  6.5671E-13
  7.4266E-13
  2.8538E-13
  4.7103E-13
  6.5669E-13
  0.0000E+00
  2.8536E-13
  5.7071E-13
  2.2484E-12
  2.5527E-12
  2.8569E-12
  1.1242E-12
  1.8384E-12
  2.5527E-12
  0.0000E+00
  1.1242E-12
  2.2484E-12
  8.2765E-12
  9.4175E-12
  1.0559E-11
  4.1383E-12
  6.7779E-12
  9.4176E-12
  0.0000E+00
  4.1383E-12
  8.2765E-12
  3.0788E-11
  3.5064E-11
  3.9340E-11
  1.5394E-11
  2.5229E-11
  3.5064E-11
  0.0000E+00
  1.5394E-11
  3.0788E-11
  1.1502E-10
  1.3097E-10
  1.4692E-10
  5.7508E-11
  9.4239E-11
  1.3097E-10
  0.0000E+00
  5.7508E-11
  1.1502E-10
  1.1142E-07
  1.1140E-07
  1.1139E-07
  1.1140E-07
  1.1140E-07
  1.1140E-07
  1.1138E-07
  1.1140E-07
  1.1142E-07
  4.4528E-07
  4.4516E-07
  4.4504E-07
  4.4540E-07
  4.4528E-07
  4.4516E-07
  4.4552E-07
  4.4540E-07
  4.4528E-07
  1.6677E-06
  1.6675E-06
  1.6672E-06
  1.6680E-06
  1.6677E-06
  1.6675E-06
  1.6683E-06
  1.6680E-06
  1.6677E-06
  6.3808E-06
  6.3804E-06
  6.3801E-06
  6.3812E-06
  6.3808E-06
  6.3804E-06
  6.3815E-06
  6.3812E-06
  6.3808E-06
  2.3565E-05
  2.3565E-05
  2.3566E-05
  2.3565E-05
  2.3565E-05
  2.3565E-05
  2.3565E-05
  2.3565E-05
  2.3565E-05
  8.7530E-05
  8.7531E-05
  8.7531E-05
  8.7530E-05
  8.7530E-05
  8.7531E-05
  8.7530E-05
  8.7530E-05
  8.7530E-05
  3.2683E-04
  3.2683E-04
  3.2683E-04
  3.2683E-04
  3.2683E-04
  3.2683E-04
  3.2683E-04
  3.2683E-04
  3.2683E-04
  1.2211E-03
  1.2211E-03
  1.2211E-03
  1.2211E-03
  1.2211E-03
  1.2211E-03
  1.2211E-03
  1.2211E-03
  1.2211E-03
  4.5623E-03
  4.5623E-03
  4.5623E-03
  4.5623E-03
  4.5623E-03
  4.5623E-03
  4.5623E-03
  4.5623E-03
  4.5623E-03
  1.7045E-02
  1.7045E-02
  1.7045E-02
  1.7045E-02
  1.7045E-02
  1.7045E-02
  1.7045E-02
  1.7045E-02
  1.7045E-02
  6.3681E-02
  6.3681E-02
  6.3681E-02
  6.3681E-02
  6.3681E-02
  6.3681E-02
  6.3681E-02
  6.3681E-02
  6.3681E-02
  2.3794E-01
  2.3794E-01
  2.3794E-01
  2.3794E-01
  2.3794E-01
  2.3794E-01
  2.3794E-01
  2.3794E-01
  2.3794E-01
  8.8860E-01
  8.8860E-01
  8.8860E-01
  8.8860E-01
  8.8860E-01
  8.8860E-01
  8.8860E-01
  8.8860E-01
  8.8860E-01
  1.4018E+00
  1.4018E+00
  1.4018E+00
  1.4018E+00
  1.4018E+00
  1.4018E+00
  1.4018E+00
  1.4018E+00
  1.4018E+00
   2.8300E-02
  2.8221E-14
  3.8131E-14
  4.8041E-14
  1.4111E-14
  2.6088E-14
  3.8065E-14
  0.0000E+00
  1.4044E-14
  2.8089E-14
  1.1267E-13
  1.3819E-13
  1.6370E-13
  5.6335E-14
  9.7241E-14
  1.3815E-13
  0.0000E+00
  5.6296E-14
  1.1259E-13
  5.7487E-13
  6.6235E-13
  7.4984E-13
  2.8743E-13
  4.7488E-13
  6.6233E-13
  0.0000E+00
  2.8741E-13
  5.7482E-13
  2.2636E-12
  2.5735E-12
  2.8835E-12
  1.1318E-12
  1.8527E-12
  2.5735E-12
  0.0000E+00
  1.1318E-12
  2.2635E-12
  8.4065E-12
  9.5639E-12
  1.0721E-11
  4.2032E-12
  6.8836E-12
  9.5640E-12
  0.0000E+00
  4.2033E-12
  8.4065E-12
  3.1274E-11
  3.5606E-11
  3.9938E-11
  1.5637E-11
  2.5621E-11
  3.5606E-11
  0.0000E+00
  1.5637E-11
  3.1274E-11
  1.1663E-10
  1.3281E-10
  1.4899E-10
  5.8315E-11
  9.5562E-11
  1.3281E-10
  0.0000E+00
  5.8315E-11
  1.1663E-10
  1.1221E-07
  1.1220E-07
  1.1218E-07
  1.1219E-07
  1.1219E-07
  1.1220E-07
  1.1217E-07
  1.1219E-07
  1.1221E-07
  4.4844E-07
  4.4832E-07
  4.4820E-07
  4.4857E-07
  4.4844E-07
  4.4832E-07
  4.4869E-07
  4.4857E-07
  4.4844E-07
  1.6794E-06
  1.6792E-06
  1.6789E-06
  1.6797E-06
  1.6794E-06
  1.6792E-06
  1.6800E-06
  1.6797E-06
  1.6794E-06
  6.4254E-06
  6.4251E-06
  6.4247E-06
  6.4258E-06
  6.4254E-06
  6.4251E-06
  6.4262E-06
  6.4258E-06
  6.4254E-06
  2.3731E-05
  2.3731E-05
  2.3731E-05
  2.3731E-05
  2.3731E-05
  2.3731E-05
  2.3730E-05
  2.3731E-05
  2.3731E-05
  8.8147E-05
  8.8147E-05
  8.8147E-05
  8.8146E-05
  8.8147E-05
  8.8147E-05
  8.8146E-05
  8.8146E-05
  8.8147E-05
  3.2914E-04
  3.2914E-04
  3.2914E-04
  3.2914E-04
  3.2914E-04
  3.2914E-04
  3.2914E-04
  3.2914E-04
  3.2914E-04
  1.2298E-03
  1.2298E-03
  1.2298E-03
  1.2298E-03
  1.2298E-03
  1.2298E-03
  1.2298E-03
  1.2298E-03
  1.2298E-03
  4.5946E-03
  4.5946E-03
  4.5946E-03
  4.5946E-03
  4.5946E-03
  4.5946E-03
  4.5946E-03
  4.5946E-03
  4.5946E-03
  1.7166E-02
  1.7166E-02
  1.7166E-02
  1.7166E-02
  1.7166E-02
  1.7166E-02
  1.7166E-02
  1.7166E-02
  1.7166E-02
  6.4132E-02
  6.4132E-02
  6.4132E-02
  6.4132E-02
  6.4132E-02
  6.4132E-02
  6.4132E-02
  6.4132E-02
  6.4132E-02
  2.3963E-01
  2.3963E-01
  2.3963E-01
  2.3963E-01
  2.3963E-01
  2.3963E-01
  2.3963E-01
  2.3963E-01
  2.3963E-01
  8.9490E-01
  8.9490E-01
  8.9490E-01
  8.9490E-01
  8.9490E-01
  8.9490E-01
  8.9490E-01
  8.9490E-01
  8.9490E-01
  1.4117E+00
  1.4117E+00
  1.4117E+00
  1.4117E+00
  1.4117E+00
  1.4117E+00
  1.4117E+00
  1.4117E+00
  1.4117E+00
   2.8400E-02
  2.8621E-14
  3.8672E-14
  4.8723E-14
  1.4311E-14
  2.6458E-14
  3.8605E-14
  0.0000E+00
  1.4244E-14
  2.8488E-14
  1.5028E-13
  1.7369E-13
  1.9709E-13
  7.5142E-14
  1.2439E-13
  1.7365E-13
  0.0000E+00
  7.5103E-14
  1.5021E-13
  6.4253E-13
  7.2450E-13
  8.0647E-13
  3.2126E-13
  5.2287E-13
  7.2448E-13
  0.0000E+00
  3.2124E-13
  6.4248E-13
  2.3059E-12
  2.6171E-12
  2.9284E-12
  1.1530E-12
  1.8850E-12
  2.6171E-12
  0.0000E+00
  1.1529E-12
  2.3059E-12
  8.4639E-12
  9.6431E-12
  1.0822E-11
  4.2320E-12
  6.9375E-12
  9.6431E-12
  0.0000E+00
  4.2320E-12
  8.4640E-12
  3.1635E-11
  3.6037E-11
  4.0440E-11
  1.5817E-11
  2.5927E-11
  3.6038E-11
  0.0000E+00
  1.5817E-11
  3.1635E-11
  1.1827E-10
  1.3468E-10
  1.5110E-10
  5.9136E-11
  9.6910E-11
  1.3468E-10
  0.0000E+00
  5.9136E-11
  1.1827E-10
  1.1300E-07
  1.1299E-07
  1.1297E-07
  1.1299E-07
  1.1299E-07
  1.1299E-07
  1.1297E-07
  1.1299E-07
  1.1300E-07
  4.5162E-07
  4.5149E-07
  4.5137E-07
  4.5174E-07
  4.5162E-07
  4.5149E-07
  4.5186E-07
  4.5174E-07
  4.5162E-07
  1.6912E-06
  1.6909E-06
  1.6906E-06
  1.6914E-06
  1.6912E-06
  1.6909E-06
  1.6917E-06
  1.6914E-06
  1.6912E-06
  6.4702E-06
  6.4698E-06
  6.4695E-06
  6.4706E-06
  6.4702E-06
  6.4698E-06
  6.4709E-06
  6.4706E-06
  6.4702E-06
  2.3897E-05
  2.3897E-05
  2.3897E-05
  2.3897E-05
  2.3897E-05
  2.3897E-05
  2.3896E-05
  2.3897E-05
  2.3897E-05
  8.8765E-05
  8.8766E-05
  8.8766E-05
  8.8765E-05
  8.8765E-05
  8.8766E-05
  8.8765E-05
  8.8765E-05
  8.8765E-05
  3.3145E-04
  3.3145E-04
  3.3145E-04
  3.3145E-04
  3.3145E-04
  3.3145E-04
  3.3145E-04
  3.3145E-04
  3.3145E-04
  1.2384E-03
  1.2384E-03
  1.2384E-03
  1.2384E-03
  1.2384E-03
  1.2384E-03
  1.2384E-03
  1.2384E-03
  1.2384E-03
  4.6269E-03
  4.6269E-03
  4.6269E-03
  4.6269E-03
  4.6269E-03
  4.6269E-03
  4.6269E-03
  4.6269E-03
  4.6269E-03
  1.7287E-02
  1.7287E-02
  1.7287E-02
  1.7287E-02
  1.7287E-02
  1.7287E-02
  1.7287E-02
  1.7287E-02
  1.7287E-02
  6.4584E-02
  6.4584E-02
  6.4584E-02
  6.4584E-02
  6.4584E-02
  6.4584E-02
  6.4584E-02
  6.4584E-02
  6.4584E-02
  2.4132E-01
  2.4132E-01
  2.4132E-01
  2.4132E-01
  2.4132E-01
  2.4132E-01
  2.4132E-01
  2.4132E-01
  2.4132E-01
  9.0123E-01
  9.0123E-01
  9.0123E-01
  9.0123E-01
  9.0123E-01
  9.0123E-01
  9.0123E-01
  9.0123E-01
  9.0123E-01
  1.4217E+00
  1.4217E+00
  1.4217E+00
  1.4217E+00
  1.4217E+00
  1.4217E+00
  1.4217E+00
  1.4217E+00
  1.4217E+00
   2.8500E-02
  2.9026E-14
  3.9219E-14
  4.9412E-14
  1.4513E-14
  2.6832E-14
  3.9152E-14
  0.0000E+00
  1.4446E-14
  2.8891E-14
  1.5131E-13
  1.7510E-13
  1.9889E-13
  7.5655E-14
  1.2536E-13
  1.7506E-13
  0.0000E+00
  7.5616E-14
  1.5123E-13
  6.4656E-13
  7.3007E-13
  8.1358E-13
  3.2328E-13
  5.2666E-13
  7.3005E-13
  0.0000E+00
  3.2326E-13
  6.4651E-13
  2.3214E-12
  2.6385E-12
  2.9556E-12
  1.1607E-12
  1.8996E-12
  2.6385E-12
  0.0000E+00
  1.1607E-12
  2.3214E-12
  8.5952E-12
  9.7913E-12
  1.0987E-11
  4.2976E-12
  7.0445E-12
  9.7913E-12
  0.0000E+00
  4.2976E-12
  8.5953E-12
  3.2125E-11
  3.6586E-11
  4.1046E-11
  1.6063E-11
  2.6324E-11
  3.6586E-11
  0.0000E+00
  1.6063E-11
  3.2125E-11
  1.1998E-10
  1.3662E-10
  1.5326E-10
  5.9988E-11
  9.8302E-11
  1.3662E-10
  0.0000E+00
  5.9988E-11
  1.1998E-10
  1.1380E-07
  1.1379E-07
  1.1377E-07
  1.1378E-07
  1.1378E-07
  1.1379E-07
  1.1376E-07
  1.1378E-07
  1.1380E-07
  4.5480E-07
  4.5468E-07
  4.5455E-07
  4.5493E-07
  4.5480E-07
  4.5468E-07
  4.5505E-07
  4.5493E-07
  4.5480E-07
  1.7029E-06
  1.7027E-06
  1.7024E-06
  1.7032E-06
  1.7029E-06
  1.7027E-06
  1.7035E-06
  1.7032E-06
  1.7029E-06
  6.5151E-06
  6.5148E-06
  6.5144E-06
  6.5155E-06
  6.5151E-06
  6.5148E-06
  6.5159E-06
  6.5155E-06
  6.5151E-06
  2.4063E-05
  2.4064E-05
  2.4064E-05
  2.4063E-05
  2.4063E-05
  2.4064E-05
  2.4063E-05
  2.4063E-05
  2.4063E-05
  8.9386E-05
  8.9386E-05
  8.9387E-05
  8.9386E-05
  8.9386E-05
  8.9386E-05
  8.9385E-05
  8.9386E-05
  8.9386E-05
  3.3377E-04
  3.3377E-04
  3.3377E-04
  3.3377E-04
  3.3377E-04
  3.3377E-04
  3.3377E-04
  3.3377E-04
  3.3377E-04
  1.2471E-03
  1.2471E-03
  1.2471E-03
  1.2471E-03
  1.2471E-03
  1.2471E-03
  1.2471E-03
  1.2471E-03
  1.2471E-03
  4.6594E-03
  4.6594E-03
  4.6594E-03
  4.6594E-03
  4.6594E-03
  4.6594E-03
  4.6594E-03
  4.6594E-03
  4.6594E-03
  1.7408E-02
  1.7408E-02
  1.7408E-02
  1.7408E-02
  1.7408E-02
  1.7408E-02
  1.7408E-02
  1.7408E-02
  1.7408E-02
  6.5039E-02
  6.5039E-02
  6.5039E-02
  6.5039E-02
  6.5039E-02
  6.5039E-02
  6.5039E-02
  6.5039E-02
  6.5039E-02
  2.4302E-01
  2.4302E-01
  2.4302E-01
  2.4302E-01
  2.4302E-01
  2.4302E-01
  2.4302E-01
  2.4302E-01
  2.4302E-01
  9.0758E-01
  9.0758E-01
  9.0758E-01
  9.0758E-01
  9.0758E-01
  9.0758E-01
  9.0758E-01
  9.0758E-01
  9.0758E-01
  1.4317E+00
  1.4317E+00
  1.4317E+00
  1.4317E+00
  1.4317E+00
  1.4317E+00
  1.4317E+00
  1.4317E+00
  1.4317E+00
   2.8600E-02
  2.9434E-14
  3.9771E-14
  5.0108E-14
  1.4717E-14
  2.7210E-14
  3.9703E-14
  0.0000E+00
  1.4649E-14
  2.9299E-14
  1.5235E-13
  1.7653E-13
  2.0071E-13
  7.6176E-14
  1.2633E-13
  1.7649E-13
  0.0000E+00
  7.6137E-14
  1.5227E-13
  6.5066E-13
  7.3572E-13
  8.2079E-13
  3.2533E-13
  5.3051E-13
  7.3570E-13
  0.0000E+00
  3.2530E-13
  6.5061E-13
  2.3737E-12
  2.6941E-12
  3.0146E-12
  1.1868E-12
  1.9405E-12
  2.6941E-12
  0.0000E+00
  1.1868E-12
  2.3736E-12
  8.7909E-12
  9.9970E-12
  1.1203E-11
  4.3954E-12
  7.1962E-12
  9.9970E-12
  0.0000E+00
  4.3954E-12
  8.7909E-12
  3.2663E-11
  3.7169E-11
  4.1674E-11
  1.6332E-11
  2.6750E-11
  3.7169E-11
  0.0000E+00
  1.6332E-11
  3.2664E-11
  1.2172E-10
  1.3856E-10
  1.5541E-10
  6.0860E-11
  9.9711E-11
  1.3856E-10
  0.0000E+00
  6.0860E-11
  1.2172E-10
  1.1460E-07
  1.1459E-07
  1.1457E-07
  1.1458E-07
  1.1458E-07
  1.1459E-07
  1.1456E-07
  1.1458E-07
  1.1460E-07
  4.5800E-07
  4.5787E-07
  4.5774E-07
  4.5812E-07
  4.5800E-07
  4.5787E-07
  4.5825E-07
  4.5812E-07
  4.5800E-07
  1.7148E-06
  1.7145E-06
  1.7142E-06
  1.7150E-06
  1.7148E-06
  1.7145E-06
  1.7153E-06
  1.7150E-06
  1.7148E-06
  6.5602E-06
  6.5598E-06
  6.5595E-06
  6.5606E-06
  6.5602E-06
  6.5598E-06
  6.5609E-06
  6.5606E-06
  6.5602E-06
  2.4231E-05
  2.4231E-05
  2.4231E-05
  2.4230E-05
  2.4231E-05
  2.4231E-05
  2.4230E-05
  2.4230E-05
  2.4231E-05
  9.0009E-05
  9.0009E-05
  9.0009E-05
  9.0008E-05
  9.0009E-05
  9.0009E-05
  9.0008E-05
  9.0008E-05
  9.0009E-05
  3.3610E-04
  3.3610E-04
  3.3610E-04
  3.3610E-04
  3.3610E-04
  3.3610E-04
  3.3610E-04
  3.3610E-04
  3.3610E-04
  1.2558E-03
  1.2558E-03
  1.2558E-03
  1.2558E-03
  1.2558E-03
  1.2558E-03
  1.2558E-03
  1.2558E-03
  1.2558E-03
  4.6920E-03
  4.6920E-03
  4.6920E-03
  4.6920E-03
  4.6920E-03
  4.6920E-03
  4.6920E-03
  4.6920E-03
  4.6920E-03
  1.7530E-02
  1.7530E-02
  1.7530E-02
  1.7530E-02
  1.7530E-02
  1.7530E-02
  1.7530E-02
  1.7530E-02
  1.7530E-02
  6.5494E-02
  6.5494E-02
  6.5494E-02
  6.5494E-02
  6.5494E-02
  6.5494E-02
  6.5494E-02
  6.5494E-02
  6.5494E-02
  2.4473E-01
  2.4473E-01
  2.4473E-01
  2.4473E-01
  2.4473E-01
  2.4473E-01
  2.4473E-01
  2.4473E-01
  2.4473E-01
  9.1395E-01
  9.1395E-01
  9.1395E-01
  9.1395E-01
  9.1395E-01
  9.1395E-01
  9.1395E-01
  9.1395E-01
  9.1395E-01
  1.4418E+00
  1.4418E+00
  1.4418E+00
  1.4418E+00
  1.4418E+00
  1.4418E+00
  1.4418E+00
  1.4418E+00
  1.4418E+00
   2.8700E-02
  2.9847E-14
  4.0329E-14
  5.0812E-14
  1.4923E-14
  2.7592E-14
  4.0261E-14
  0.0000E+00
  1.4855E-14
  2.9710E-14
  1.5341E-13
  1.7798E-13
  2.0255E-13
  7.6703E-14
  1.2732E-13
  1.7794E-13
  0.0000E+00
  7.6664E-14
  1.5333E-13
  6.5481E-13
  7.4145E-13
  8.2809E-13
  3.2740E-13
  5.3441E-13
  7.4142E-13
  0.0000E+00
  3.2738E-13
  6.5476E-13
  2.3895E-12
  2.7159E-12
  3.0424E-12
  1.1947E-12
  1.9553E-12
  2.7159E-12
  0.0000E+00
  1.1947E-12
  2.3894E-12
  8.8501E-12
  1.0079E-11
  1.1307E-11
  4.4250E-12
  7.2518E-12
  1.0079E-11
  0.0000E+00
  4.4250E-12
  8.8501E-12
  3.3050E-11
  3.7635E-11
  4.2221E-11
  1.6525E-11
  2.7080E-11
  3.7635E-11
  0.0000E+00
  1.6525E-11
  3.3050E-11
  1.2334E-10
  1.4046E-10
  1.5757E-10
  6.1672E-11
  1.0107E-10
  1.4046E-10
  0.0000E+00
  6.1673E-11
  1.2335E-10
  1.1541E-07
  1.1539E-07
  1.1537E-07
  1.1539E-07
  1.1539E-07
  1.1539E-07
  1.1537E-07
  1.1539E-07
  1.1541E-07
  4.6120E-07
  4.6107E-07
  4.6094E-07
  4.6133E-07
  4.6120E-07
  4.6107E-07
  4.6146E-07
  4.6133E-07
  4.6120E-07
  1.7266E-06
  1.7263E-06
  1.7260E-06
  1.7269E-06
  1.7266E-06
  1.7263E-06
  1.7272E-06
  1.7269E-06
  1.7266E-06
  6.6054E-06
  6.6050E-06
  6.6047E-06
  6.6058E-06
  6.6054E-06
  6.6050E-06
  6.6061E-06
  6.6058E-06
  6.6054E-06
  2.4398E-05
  2.4399E-05
  2.4399E-05
  2.4398E-05
  2.4398E-05
  2.4399E-05
  2.4398E-05
  2.4398E-05
  2.4398E-05
  9.0634E-05
  9.0634E-05
  9.0634E-05
  9.0633E-05
  9.0634E-05
  9.0634E-05
  9.0633E-05
  9.0633E-05
  9.0634E-05
  3.3844E-04
  3.3844E-04
  3.3844E-04
  3.3844E-04
  3.3844E-04
  3.3844E-04
  3.3844E-04
  3.3844E-04
  3.3844E-04
  1.2645E-03
  1.2645E-03
  1.2645E-03
  1.2645E-03
  1.2645E-03
  1.2645E-03
  1.2645E-03
  1.2645E-03
  1.2645E-03
  4.7247E-03
  4.7247E-03
  4.7247E-03
  4.7247E-03
  4.7247E-03
  4.7247E-03
  4.7247E-03
  4.7247E-03
  4.7247E-03
  1.7653E-02
  1.7653E-02
  1.7653E-02
  1.7653E-02
  1.7653E-02
  1.7653E-02
  1.7653E-02
  1.7653E-02
  1.7653E-02
  6.5952E-02
  6.5952E-02
  6.5952E-02
  6.5952E-02
  6.5952E-02
  6.5952E-02
  6.5952E-02
  6.5952E-02
  6.5952E-02
  2.4644E-01
  2.4644E-01
  2.4644E-01
  2.4644E-01
  2.4644E-01
  2.4644E-01
  2.4644E-01
  2.4644E-01
  2.4644E-01
  9.2035E-01
  9.2035E-01
  9.2035E-01
  9.2035E-01
  9.2035E-01
  9.2035E-01
  9.2035E-01
  9.2035E-01
  9.2035E-01
  1.4519E+00
  1.4519E+00
  1.4519E+00
  1.4519E+00
  1.4519E+00
  1.4519E+00
  1.4519E+00
  1.4519E+00
  1.4519E+00
   2.8800E-02
  3.0264E-14
  4.0893E-14
  5.1523E-14
  1.5132E-14
  2.7978E-14
  4.0825E-14
  0.0000E+00
  1.5063E-14
  3.0127E-14
  1.5447E-13
  1.7945E-13
  2.0442E-13
  7.7237E-14
  1.2832E-13
  1.7941E-13
  0.0000E+00
  7.7197E-14
  1.5439E-13
  6.5902E-13
  7.4725E-13
  8.3549E-13
  3.2951E-13
  5.3837E-13
  7.4723E-13
  0.0000E+00
  3.2948E-13
  6.5897E-13
  2.4055E-12
  2.7380E-12
  3.0705E-12
  1.2027E-12
  1.9704E-12
  2.7380E-12
  0.0000E+00
  1.2027E-12
  2.4054E-12
  8.9833E-12
  1.0229E-11
  1.1475E-11
  4.4916E-12
  7.3605E-12
  1.0229E-11
  0.0000E+00
  4.4917E-12
  8.9833E-12
  3.3547E-11
  3.8193E-11
  4.2839E-11
  1.6774E-11
  2.7483E-11
  3.8193E-11
  0.0000E+00
  1.6774E-11
  3.3547E-11
  1.2507E-10
  1.4243E-10
  1.5978E-10
  6.2537E-11
  1.0248E-10
  1.4243E-10
  0.0000E+00
  6.2537E-11
  1.2507E-10
  1.1621E-07
  1.1620E-07
  1.1618E-07
  1.1619E-07
  1.1619E-07
  1.1620E-07
  1.1617E-07
  1.1619E-07
  1.1621E-07
  4.6442E-07
  4.6429E-07
  4.6416E-07
  4.6455E-07
  4.6442E-07
  4.6429E-07
  4.6468E-07
  4.6455E-07
  4.6442E-07
  1.7385E-06
  1.7382E-06
  1.7379E-06
  1.7388E-06
  1.7385E-06
  1.7382E-06
  1.7390E-06
  1.7388E-06
  1.7385E-06
  6.6508E-06
  6.6504E-06
  6.6500E-06
  6.6511E-06
  6.6508E-06
  6.6504E-06
  6.6515E-06
  6.6511E-06
  6.6508E-06
  2.4567E-05
  2.4567E-05
  2.4567E-05
  2.4566E-05
  2.4567E-05
  2.4567E-05
  2.4566E-05
  2.4566E-05
  2.4567E-05
  9.1261E-05
  9.1261E-05
  9.1261E-05
  9.1260E-05
  9.1261E-05
  9.1261E-05
  9.1260E-05
  9.1260E-05
  9.1261E-05
  3.4078E-04
  3.4078E-04
  3.4078E-04
  3.4078E-04
  3.4078E-04
  3.4078E-04
  3.4078E-04
  3.4078E-04
  3.4078E-04
  1.2733E-03
  1.2733E-03
  1.2733E-03
  1.2733E-03
  1.2733E-03
  1.2733E-03
  1.2733E-03
  1.2733E-03
  1.2733E-03
  4.7575E-03
  4.7575E-03
  4.7575E-03
  4.7575E-03
  4.7575E-03
  4.7575E-03
  4.7575E-03
  4.7575E-03
  4.7575E-03
  1.7775E-02
  1.7775E-02
  1.7775E-02
  1.7775E-02
  1.7775E-02
  1.7775E-02
  1.7775E-02
  1.7775E-02
  1.7775E-02
  6.6411E-02
  6.6411E-02
  6.6411E-02
  6.6411E-02
  6.6411E-02
  6.6411E-02
  6.6411E-02
  6.6411E-02
  6.6411E-02
  2.4815E-01
  2.4815E-01
  2.4815E-01
  2.4815E-01
  2.4815E-01
  2.4815E-01
  2.4815E-01
  2.4815E-01
  2.4815E-01
  9.2676E-01
  9.2676E-01
  9.2676E-01
  9.2676E-01
  9.2676E-01
  9.2676E-01
  9.2676E-01
  9.2676E-01
  9.2676E-01
  1.4620E+00
  1.4620E+00
  1.4620E+00
  1.4620E+00
  1.4620E+00
  1.4620E+00
  1.4620E+00
  1.4620E+00
  1.4620E+00
   2.8900E-02
  3.0685E-14
  4.1463E-14
  5.2242E-14
  1.5343E-14
  2.8368E-14
  4.1394E-14
  0.0000E+00
  1.5273E-14
  3.0547E-14
  1.5556E-13
  1.8093E-13
  2.0631E-13
  7.7778E-14
  1.2934E-13
  1.8089E-13
  0.0000E+00
  7.7738E-14
  1.5548E-13
  6.6328E-13
  7.5314E-13
  8.4299E-13
  3.3164E-13
  5.4238E-13
  7.5311E-13
  0.0000E+00
  3.3162E-13
  6.6323E-13
  2.4583E-12
  2.7944E-12
  3.1305E-12
  1.2291E-12
  2.0118E-12
  2.7944E-12
  0.0000E+00
  1.2291E-12
  2.4583E-12
  9.1075E-12
  1.0369E-11
  1.1631E-11
  4.5538E-12
  7.4616E-12
  1.0369E-11
  0.0000E+00
  4.5538E-12
  9.1075E-12
  3.3947E-11
  3.8663E-11
  4.3380E-11
  1.6973E-11
  2.7818E-11
  3.8663E-11
  0.0000E+00
  1.6973E-11
  3.3947E-11
  1.2683E-10
  1.4443E-10
  1.6202E-10
  6.3416E-11
  1.0392E-10
  1.4443E-10
  0.0000E+00
  6.3416E-11
  1.2683E-10
  1.1702E-07
  1.1700E-07
  1.1699E-07
  1.1700E-07
  1.1700E-07
  1.1700E-07
  1.1698E-07
  1.1700E-07
  1.1702E-07
  4.6765E-07
  4.6752E-07
  4.6738E-07
  4.6778E-07
  4.6765E-07
  4.6752E-07
  4.6791E-07
  4.6778E-07
  4.6765E-07
  1.7504E-06
  1.7501E-06
  1.7498E-06
  1.7507E-06
  1.7504E-06
  1.7501E-06
  1.7510E-06
  1.7507E-06
  1.7504E-06
  6.6963E-06
  6.6959E-06
  6.6955E-06
  6.6966E-06
  6.6963E-06
  6.6959E-06
  6.6970E-06
  6.6966E-06
  6.6963E-06
  2.4736E-05
  2.4736E-05
  2.4736E-05
  2.4735E-05
  2.4736E-05
  2.4736E-05
  2.4735E-05
  2.4735E-05
  2.4736E-05
  9.1890E-05
  9.1890E-05
  9.1890E-05
  9.1890E-05
  9.1890E-05
  9.1890E-05
  9.1889E-05
  9.1890E-05
  9.1890E-05
  3.4313E-04
  3.4313E-04
  3.4313E-04
  3.4313E-04
  3.4313E-04
  3.4313E-04
  3.4313E-04
  3.4313E-04
  3.4313E-04
  1.2821E-03
  1.2821E-03
  1.2821E-03
  1.2821E-03
  1.2821E-03
  1.2821E-03
  1.2821E-03
  1.2821E-03
  1.2821E-03
  4.7904E-03
  4.7904E-03
  4.7904E-03
  4.7904E-03
  4.7904E-03
  4.7904E-03
  4.7904E-03
  4.7904E-03
  4.7904E-03
  1.7898E-02
  1.7898E-02
  1.7898E-02
  1.7898E-02
  1.7898E-02
  1.7898E-02
  1.7898E-02
  1.7898E-02
  1.7898E-02
  6.6871E-02
  6.6871E-02
  6.6871E-02
  6.6871E-02
  6.6871E-02
  6.6871E-02
  6.6871E-02
  6.6871E-02
  6.6871E-02
  2.4988E-01
  2.4988E-01
  2.4988E-01
  2.4988E-01
  2.4988E-01
  2.4988E-01
  2.4988E-01
  2.4988E-01
  2.4988E-01
  9.3320E-01
  9.3320E-01
  9.3320E-01
  9.3320E-01
  9.3320E-01
  9.3320E-01
  9.3320E-01
  9.3320E-01
  9.3320E-01
  1.4722E+00
  1.4722E+00
  1.4722E+00
  1.4722E+00
  1.4722E+00
  1.4722E+00
  1.4722E+00
  1.4722E+00
  1.4722E+00
   2.9000E-02
  3.1111E-14
  4.2039E-14
  5.2967E-14
  1.5556E-14
  2.8763E-14
  4.1970E-14
  0.0000E+00
  1.5486E-14
  3.0972E-14
  1.5665E-13
  1.8244E-13
  2.0823E-13
  7.8326E-14
  1.3036E-13
  1.8240E-13
  0.0000E+00
  7.8286E-14
  1.5657E-13
  6.6761E-13
  7.5910E-13
  8.5059E-13
  3.3380E-13
  5.4644E-13
  7.5908E-13
  0.0000E+00
  3.3378E-13
  6.6756E-13
  2.4746E-12
  2.8169E-12
  3.1592E-12
  1.2373E-12
  2.0271E-12
  2.8169E-12
  0.0000E+00
  1.2373E-12
  2.4746E-12
  9.2419E-12
  1.0522E-11
  1.1802E-11
  4.6209E-12
  7.5714E-12
  1.0522E-11
  0.0000E+00
  4.6210E-12
  9.2419E-12
  3.4485E-11
  3.9261E-11
  4.4038E-11
  1.7243E-11
  2.8252E-11
  3.9262E-11
  0.0000E+00
  1.7243E-11
  3.4486E-11
  1.2864E-10
  1.4648E-10
  1.6431E-10
  6.4321E-11
  1.0540E-10
  1.4648E-10
  0.0000E+00
  6.4322E-11
  1.2864E-10
  1.1783E-07
  1.1782E-07
  1.1780E-07
  1.1781E-07
  1.1781E-07
  1.1782E-07
  1.1779E-07
  1.1781E-07
  1.1783E-07
  4.7089E-07
  4.7076E-07
  4.7062E-07
  4.7102E-07
  4.7089E-07
  4.7076E-07
  4.7116E-07
  4.7102E-07
  4.7089E-07
  1.7624E-06
  1.7621E-06
  1.7618E-06
  1.7626E-06
  1.7623E-06
  1.7621E-06
  1.7629E-06
  1.7626E-06
  1.7624E-06
  6.7419E-06
  6.7415E-06
  6.7412E-06
  6.7423E-06
  6.7419E-06
  6.7415E-06
  6.7427E-06
  6.7423E-06
  6.7419E-06
  2.4905E-05
  2.4905E-05
  2.4905E-05
  2.4905E-05
  2.4905E-05
  2.4905E-05
  2.4905E-05
  2.4905E-05
  2.4905E-05
  9.2521E-05
  9.2521E-05
  9.2522E-05
  9.2521E-05
  9.2521E-05
  9.2521E-05
  9.2520E-05
  9.2521E-05
  9.2521E-05
  3.4549E-04
  3.4549E-04
  3.4549E-04
  3.4549E-04
  3.4549E-04
  3.4549E-04
  3.4549E-04
  3.4549E-04
  3.4549E-04
  1.2909E-03
  1.2909E-03
  1.2909E-03
  1.2909E-03
  1.2909E-03
  1.2909E-03
  1.2909E-03
  1.2909E-03
  1.2909E-03
  4.8234E-03
  4.8234E-03
  4.8234E-03
  4.8234E-03
  4.8234E-03
  4.8234E-03
  4.8234E-03
  4.8234E-03
  4.8234E-03
  1.8022E-02
  1.8022E-02
  1.8022E-02
  1.8022E-02
  1.8022E-02
  1.8022E-02
  1.8022E-02
  1.8022E-02
  1.8022E-02
  6.7333E-02
  6.7333E-02
  6.7333E-02
  6.7333E-02
  6.7333E-02
  6.7333E-02
  6.7333E-02
  6.7333E-02
  6.7333E-02
  2.5161E-01
  2.5161E-01
  2.5161E-01
  2.5161E-01
  2.5161E-01
  2.5161E-01
  2.5161E-01
  2.5161E-01
  2.5161E-01
  9.3966E-01
  9.3966E-01
  9.3966E-01
  9.3966E-01
  9.3966E-01
  9.3966E-01
  9.3966E-01
  9.3966E-01
  9.3966E-01
  1.4823E+00
  1.4823E+00
  1.4823E+00
  1.4823E+00
  1.4823E+00
  1.4823E+00
  1.4823E+00
  1.4823E+00
  1.4823E+00
   2.9100E-02
  3.1541E-14
  4.2621E-14
  5.3701E-14
  1.5771E-14
  2.9161E-14
  4.2551E-14
  0.0000E+00
  1.5701E-14
  3.1401E-14
  1.5776E-13
  1.8396E-13
  2.1016E-13
  7.8882E-14
  1.3140E-13
  1.8392E-13
  0.0000E+00
  7.8841E-14
  1.5768E-13
  6.7199E-13
  7.6514E-13
  8.5829E-13
  3.3600E-13
  5.5056E-13
  7.6512E-13
  0.0000E+00
  3.3597E-13
  6.7194E-13
  2.4912E-12
  2.8398E-12
  3.1883E-12
  1.2456E-12
  2.0427E-12
  2.8397E-12
  0.0000E+00
  1.2456E-12
  2.4912E-12
  9.3038E-12
  1.0607E-11
  1.1910E-11
  4.6519E-12
  7.6295E-12
  1.0607E-11
  0.0000E+00
  4.6519E-12
  9.3038E-12
  3.4863E-11
  3.9716E-11
  4.4569E-11
  1.7431E-11
  2.8574E-11
  3.9716E-11
  0.0000E+00
  1.7431E-11
  3.4863E-11
  1.3034E-10
  1.4844E-10
  1.6653E-10
  6.5172E-11
  1.0680E-10
  1.4844E-10
  0.0000E+00
  6.5173E-11
  1.3035E-10
  1.1865E-07
  1.1863E-07
  1.1861E-07
  1.1862E-07
  1.1863E-07
  1.1863E-07
  1.1860E-07
  1.1862E-07
  1.1865E-07
  4.7414E-07
  4.7400E-07
  4.7387E-07
  4.7428E-07
  4.7414E-07
  4.7400E-07
  4.7441E-07
  4.7428E-07
  4.7414E-07
  1.7743E-06
  1.7741E-06
  1.7738E-06
  1.7746E-06
  1.7743E-06
  1.7741E-06
  1.7749E-06
  1.7746E-06
  1.7743E-06
  6.7877E-06
  6.7873E-06
  6.7870E-06
  6.7881E-06
  6.7877E-06
  6.7873E-06
  6.7884E-06
  6.7881E-06
  6.7877E-06
  2.5075E-05
  2.5075E-05
  2.5075E-05
  2.5075E-05
  2.5075E-05
  2.5075E-05
  2.5075E-05
  2.5075E-05
  2.5075E-05
  9.3154E-05
  9.3155E-05
  9.3155E-05
  9.3154E-05
  9.3154E-05
  9.3155E-05
  9.3154E-05
  9.3154E-05
  9.3154E-05
  3.4786E-04
  3.4786E-04
  3.4786E-04
  3.4786E-04
  3.4786E-04
  3.4786E-04
  3.4786E-04
  3.4786E-04
  3.4786E-04
  1.2998E-03
  1.2998E-03
  1.2998E-03
  1.2998E-03
  1.2998E-03
  1.2998E-03
  1.2998E-03
  1.2998E-03
  1.2998E-03
  4.8566E-03
  4.8566E-03
  4.8566E-03
  4.8566E-03
  4.8566E-03
  4.8566E-03
  4.8566E-03
  4.8566E-03
  4.8566E-03
  1.8146E-02
  1.8146E-02
  1.8146E-02
  1.8146E-02
  1.8146E-02
  1.8146E-02
  1.8146E-02
  1.8146E-02
  1.8146E-02
  6.7797E-02
  6.7797E-02
  6.7797E-02
  6.7797E-02
  6.7797E-02
  6.7797E-02
  6.7797E-02
  6.7797E-02
  6.7797E-02
  2.5334E-01
  2.5334E-01
  2.5334E-01
  2.5334E-01
  2.5334E-01
  2.5334E-01
  2.5334E-01
  2.5334E-01
  2.5334E-01
  9.4615E-01
  9.4615E-01
  9.4615E-01
  9.4615E-01
  9.4615E-01
  9.4615E-01
  9.4615E-01
  9.4615E-01
  9.4615E-01
  1.4926E+00
  1.4926E+00
  1.4926E+00
  1.4926E+00
  1.4926E+00
  1.4926E+00
  1.4926E+00
  1.4926E+00
  1.4926E+00
   2.9200E-02
  3.1976E-14
  4.3209E-14
  5.4442E-14
  1.5988E-14
  2.9563E-14
  4.3138E-14
  0.0000E+00
  1.5917E-14
  3.1835E-14
  1.5889E-13
  1.8551E-13
  2.1213E-13
  7.9444E-14
  1.3246E-13
  1.8547E-13
  0.0000E+00
  7.9403E-14
  1.5881E-13
  6.7644E-13
  7.7127E-13
  8.6609E-13
  3.3822E-13
  5.5473E-13
  7.7124E-13
  0.0000E+00
  3.3819E-13
  6.7639E-13
  2.5446E-12
  2.8970E-12
  3.2493E-12
  1.2723E-12
  2.0846E-12
  2.8969E-12
  0.0000E+00
  1.2723E-12
  2.5446E-12
  9.5031E-12
  1.0818E-11
  1.2133E-11
  4.7516E-12
  7.7847E-12
  1.0818E-11
  0.0000E+00
  4.7516E-12
  9.5032E-12
  3.5433E-11
  4.0343E-11
  4.5253E-11
  1.7717E-11
  2.9030E-11
  4.0343E-11
  0.0000E+00
  1.7717E-11
  3.5433E-11
  1.3217E-10
  1.5051E-10
  1.6884E-10
  6.6087E-11
  1.0830E-10
  1.5051E-10
  0.0000E+00
  6.6087E-11
  1.3217E-10
  1.1946E-07
  1.1945E-07
  1.1943E-07
  1.1944E-07
  1.1944E-07
  1.1945E-07
  1.1942E-07
  1.1944E-07
  1.1946E-07
  4.7740E-07
  4.7727E-07
  4.7713E-07
  4.7754E-07
  4.7740E-07
  4.7727E-07
  4.7768E-07
  4.7754E-07
  4.7740E-07
  1.7864E-06
  1.7861E-06
  1.7858E-06
  1.7866E-06
  1.7864E-06
  1.7861E-06
  1.7869E-06
  1.7866E-06
  1.7864E-06
  6.8336E-06
  6.8333E-06
  6.8329E-06
  6.8340E-06
  6.8336E-06
  6.8333E-06
  6.8344E-06
  6.8340E-06
  6.8336E-06
  2.5245E-05
  2.5246E-05
  2.5246E-05
  2.5245E-05
  2.5245E-05
  2.5246E-05
  2.5245E-05
  2.5245E-05
  2.5245E-05
  9.3790E-05
  9.3790E-05
  9.3790E-05
  9.3789E-05
  9.3790E-05
  9.3790E-05
  9.3789E-05
  9.3789E-05
  9.3790E-05
  3.5024E-04
  3.5024E-04
  3.5024E-04
  3.5024E-04
  3.5024E-04
  3.5024E-04
  3.5024E-04
  3.5024E-04
  3.5024E-04
  1.3087E-03
  1.3087E-03
  1.3087E-03
  1.3087E-03
  1.3087E-03
  1.3087E-03
  1.3087E-03
  1.3087E-03
  1.3087E-03
  4.8898E-03
  4.8898E-03
  4.8898E-03
  4.8898E-03
  4.8898E-03
  4.8898E-03
  4.8898E-03
  4.8898E-03
  4.8898E-03
  1.8270E-02
  1.8270E-02
  1.8270E-02
  1.8270E-02
  1.8270E-02
  1.8270E-02
  1.8270E-02
  1.8270E-02
  1.8270E-02
  6.8262E-02
  6.8262E-02
  6.8262E-02
  6.8262E-02
  6.8262E-02
  6.8262E-02
  6.8262E-02
  6.8262E-02
  6.8262E-02
  2.5508E-01
  2.5508E-01
  2.5508E-01
  2.5508E-01
  2.5508E-01
  2.5508E-01
  2.5508E-01
  2.5508E-01
  2.5508E-01
  9.5265E-01
  9.5265E-01
  9.5265E-01
  9.5265E-01
  9.5265E-01
  9.5265E-01
  9.5265E-01
  9.5265E-01
  9.5265E-01
  1.5028E+00
  1.5028E+00
  1.5028E+00
  1.5028E+00
  1.5028E+00
  1.5028E+00
  1.5028E+00
  1.5028E+00
  1.5028E+00
   2.9300E-02
  3.2415E-14
  4.3803E-14
  5.5190E-14
  1.6208E-14
  2.9970E-14
  4.3732E-14
  0.0000E+00
  1.6136E-14
  3.2273E-14
  1.6003E-13
  1.8707E-13
  2.1412E-13
  8.0013E-14
  1.3352E-13
  1.8703E-13
  0.0000E+00
  7.9972E-14
  1.5994E-13
  6.8094E-13
  7.7747E-13
  8.7400E-13
  3.4047E-13
  5.5896E-13
  7.7744E-13
  0.0000E+00
  3.4044E-13
  6.8089E-13
  2.5615E-12
  2.9202E-12
  3.2790E-12
  1.2808E-12
  2.1005E-12
  2.9202E-12
  0.0000E+00
  1.2807E-12
  2.5615E-12
  9.6395E-12
  1.0973E-11
  1.2307E-11
  4.8197E-12
  7.8964E-12
  1.0973E-11
  0.0000E+00
  4.8197E-12
  9.6395E-12
  3.5943E-11
  4.0917E-11
  4.5892E-11
  1.7971E-11
  2.9444E-11
  4.0917E-11
  0.0000E+00
  1.7971E-11
  3.5943E-11
  1.3402E-10
  1.5260E-10
  1.7119E-10
  6.7010E-11
  1.0981E-10
  1.5260E-10
  0.0000E+00
  6.7010E-11
  1.3402E-10
  1.2028E-07
  1.2027E-07
  1.2025E-07
  1.2026E-07
  1.2026E-07
  1.2027E-07
  1.2024E-07
  1.2026E-07
  1.2028E-07
  4.8068E-07
  4.8054E-07
  4.8040E-07
  4.8082E-07
  4.8068E-07
  4.8054E-07
  4.8096E-07
  4.8082E-07
  4.8068E-07
  1.7984E-06
  1.7981E-06
  1.7979E-06
  1.7987E-06
  1.7984E-06
  1.7981E-06
  1.7990E-06
  1.7987E-06
  1.7984E-06
  6.8797E-06
  6.8793E-06
  6.8790E-06
  6.8801E-06
  6.8797E-06
  6.8793E-06
  6.8805E-06
  6.8801E-06
  6.8797E-06
  2.5417E-05
  2.5417E-05
  2.5417E-05
  2.5416E-05
  2.5417E-05
  2.5417E-05
  2.5416E-05
  2.5416E-05
  2.5417E-05
  9.4427E-05
  9.4428E-05
  9.4428E-05
  9.4427E-05
  9.4427E-05
  9.4428E-05
  9.4427E-05
  9.4427E-05
  9.4427E-05
  3.5262E-04
  3.5262E-04
  3.5262E-04
  3.5262E-04
  3.5262E-04
  3.5262E-04
  3.5262E-04
  3.5262E-04
  3.5262E-04
  1.3176E-03
  1.3176E-03
  1.3176E-03
  1.3176E-03
  1.3176E-03
  1.3176E-03
  1.3176E-03
  1.3176E-03
  1.3176E-03
  4.9232E-03
  4.9232E-03
  4.9232E-03
  4.9232E-03
  4.9232E-03
  4.9232E-03
  4.9232E-03
  4.9232E-03
  4.9232E-03
  1.8395E-02
  1.8395E-02
  1.8395E-02
  1.8395E-02
  1.8395E-02
  1.8395E-02
  1.8395E-02
  1.8395E-02
  1.8395E-02
  6.8729E-02
  6.8729E-02
  6.8729E-02
  6.8729E-02
  6.8729E-02
  6.8729E-02
  6.8729E-02
  6.8729E-02
  6.8729E-02
  2.5683E-01
  2.5683E-01
  2.5683E-01
  2.5683E-01
  2.5683E-01
  2.5683E-01
  2.5683E-01
  2.5683E-01
  2.5683E-01
  9.5918E-01
  9.5918E-01
  9.5918E-01
  9.5918E-01
  9.5918E-01
  9.5918E-01
  9.5918E-01
  9.5918E-01
  9.5918E-01
  1.5131E+00
  1.5131E+00
  1.5131E+00
  1.5131E+00
  1.5131E+00
  1.5131E+00
  1.5131E+00
  1.5131E+00
  1.5131E+00
   2.9400E-02
  3.2859E-14
  4.4403E-14
  5.5947E-14
  1.6429E-14
  3.0380E-14
  4.4331E-14
  0.0000E+00
  1.6358E-14
  3.2716E-14
  1.6118E-13
  1.8866E-13
  2.1613E-13
  8.0590E-14
  1.3460E-13
  1.8861E-13
  0.0000E+00
  8.0549E-14
  1.6110E-13
  6.8550E-13
  7.8375E-13
  8.8200E-13
  3.4275E-13
  5.6324E-13
  7.8373E-13
  0.0000E+00
  3.4273E-13
  6.8545E-13
  2.5787E-12
  2.9438E-12
  3.3090E-12
  1.2893E-12
  2.1166E-12
  2.9438E-12
  0.0000E+00
  1.2893E-12
  2.5786E-12
  9.7032E-12
  1.1061E-11
  1.2418E-11
  4.8516E-12
  7.9562E-12
  1.1061E-11
  0.0000E+00
  4.8516E-12
  9.7033E-12
  3.6364E-11
  4.1415E-11
  4.6467E-11
  1.8182E-11
  2.9799E-11
  4.1416E-11
  0.0000E+00
  1.8182E-11
  3.6364E-11
  1.3581E-10
  1.5466E-10
  1.7350E-10
  6.7907E-11
  1.1128E-10
  1.5466E-10
  0.0000E+00
  6.7907E-11
  1.3581E-10
  1.2111E-07
  1.2109E-07
  1.2107E-07
  1.2108E-07
  1.2109E-07
  1.2109E-07
  1.2106E-07
  1.2108E-07
  1.2111E-07
  4.8396E-07
  4.8382E-07
  4.8368E-07
  4.8410E-07
  4.8396E-07
  4.8382E-07
  4.8425E-07
  4.8410E-07
  4.8396E-07
  1.8105E-06
  1.8102E-06
  1.8100E-06
  1.8108E-06
  1.8105E-06
  1.8102E-06
  1.8111E-06
  1.8108E-06
  1.8105E-06
  6.9259E-06
  6.9256E-06
  6.9252E-06
  6.9263E-06
  6.9259E-06
  6.9256E-06
  6.9267E-06
  6.9263E-06
  6.9259E-06
  2.5588E-05
  2.5588E-05
  2.5589E-05
  2.5588E-05
  2.5588E-05
  2.5588E-05
  2.5588E-05
  2.5588E-05
  2.5588E-05
  9.5067E-05
  9.5067E-05
  9.5068E-05
  9.5067E-05
  9.5067E-05
  9.5067E-05
  9.5066E-05
  9.5067E-05
  9.5067E-05
  3.5501E-04
  3.5501E-04
  3.5501E-04
  3.5501E-04
  3.5501E-04
  3.5501E-04
  3.5501E-04
  3.5501E-04
  3.5501E-04
  1.3265E-03
  1.3265E-03
  1.3265E-03
  1.3265E-03
  1.3265E-03
  1.3265E-03
  1.3265E-03
  1.3265E-03
  1.3265E-03
  4.9566E-03
  4.9566E-03
  4.9566E-03
  4.9566E-03
  4.9566E-03
  4.9566E-03
  4.9566E-03
  4.9566E-03
  4.9566E-03
  1.8520E-02
  1.8520E-02
  1.8520E-02
  1.8520E-02
  1.8520E-02
  1.8520E-02
  1.8520E-02
  1.8520E-02
  1.8520E-02
  6.9197E-02
  6.9197E-02
  6.9197E-02
  6.9197E-02
  6.9197E-02
  6.9197E-02
  6.9197E-02
  6.9197E-02
  6.9197E-02
  2.5858E-01
  2.5858E-01
  2.5858E-01
  2.5858E-01
  2.5858E-01
  2.5858E-01
  2.5858E-01
  2.5858E-01
  2.5858E-01
  9.6573E-01
  9.6573E-01
  9.6573E-01
  9.6573E-01
  9.6573E-01
  9.6573E-01
  9.6573E-01
  9.6573E-01
  9.6573E-01
  1.5235E+00
  1.5235E+00
  1.5235E+00
  1.5235E+00
  1.5235E+00
  1.5235E+00
  1.5235E+00
  1.5235E+00
  1.5235E+00
   2.9500E-02
  3.3307E-14
  4.5009E-14
  5.6711E-14
  1.6653E-14
  3.0795E-14
  4.4937E-14
  0.0000E+00
  1.6581E-14
  3.3163E-14
  1.6235E-13
  1.9026E-13
  2.1817E-13
  8.1174E-14
  1.3570E-13
  1.9022E-13
  0.0000E+00
  8.1132E-14
  1.6226E-13
  6.9013E-13
  7.9012E-13
  8.9011E-13
  3.4506E-13
  5.6758E-13
  7.9009E-13
  0.0000E+00
  3.4504E-13
  6.9008E-13
  2.6326E-12
  3.0018E-12
  3.3710E-12
  1.3163E-12
  2.1590E-12
  3.0018E-12
  0.0000E+00
  1.3163E-12
  2.6326E-12
  9.9046E-12
  1.1274E-11
  1.2644E-11
  4.9523E-12
  8.1134E-12
  1.1274E-11
  0.0000E+00
  4.9523E-12
  9.9046E-12
  3.6905E-11
  4.2019E-11
  4.7133E-11
  1.8452E-11
  3.0236E-11
  4.2019E-11
  0.0000E+00
  1.8453E-11
  3.6905E-11
  1.3768E-10
  1.5678E-10
  1.7588E-10
  6.8839E-11
  1.1281E-10
  1.5678E-10
  0.0000E+00
  6.8839E-11
  1.3768E-10
  1.2193E-07
  1.2191E-07
  1.2190E-07
  1.2191E-07
  1.2191E-07
  1.2191E-07
  1.2189E-07
  1.2191E-07
  1.2193E-07
  4.8726E-07
  4.8711E-07
  4.8697E-07
  4.8740E-07
  4.8726E-07
  4.8711E-07
  4.8755E-07
  4.8740E-07
  4.8726E-07
  1.8227E-06
  1.8224E-06
  1.8221E-06
  1.8229E-06
  1.8227E-06
  1.8224E-06
  1.8232E-06
  1.8229E-06
  1.8227E-06
  6.9723E-06
  6.9719E-06
  6.9716E-06
  6.9727E-06
  6.9723E-06
  6.9719E-06
  6.9731E-06
  6.9727E-06
  6.9723E-06
  2.5760E-05
  2.5761E-05
  2.5761E-05
  2.5760E-05
  2.5760E-05
  2.5761E-05
  2.5760E-05
  2.5760E-05
  2.5760E-05
  9.5709E-05
  9.5709E-05
  9.5709E-05
  9.5708E-05
  9.5709E-05
  9.5709E-05
  9.5708E-05
  9.5708E-05
  9.5709E-05
  3.5741E-04
  3.5741E-04
  3.5741E-04
  3.5741E-04
  3.5741E-04
  3.5741E-04
  3.5741E-04
  3.5741E-04
  3.5741E-04
  1.3355E-03
  1.3355E-03
  1.3355E-03
  1.3355E-03
  1.3355E-03
  1.3355E-03
  1.3355E-03
  1.3355E-03
  1.3355E-03
  4.9902E-03
  4.9902E-03
  4.9902E-03
  4.9902E-03
  4.9902E-03
  4.9902E-03
  4.9902E-03
  4.9902E-03
  4.9902E-03
  1.8646E-02
  1.8646E-02
  1.8646E-02
  1.8646E-02
  1.8646E-02
  1.8646E-02
  1.8646E-02
  1.8646E-02
  1.8646E-02
  6.9667E-02
  6.9667E-02
  6.9667E-02
  6.9667E-02
  6.9667E-02
  6.9667E-02
  6.9667E-02
  6.9667E-02
  6.9667E-02
  2.6034E-01
  2.6034E-01
  2.6034E-01
  2.6034E-01
  2.6034E-01
  2.6034E-01
  2.6034E-01
  2.6034E-01
  2.6034E-01
  9.7230E-01
  9.7230E-01
  9.7230E-01
  9.7230E-01
  9.7230E-01
  9.7230E-01
  9.7230E-01
  9.7230E-01
  9.7230E-01
  1.5338E+00
  1.5338E+00
  1.5338E+00
  1.5338E+00
  1.5338E+00
  1.5338E+00
  1.5338E+00
  1.5338E+00
  1.5338E+00
   2.9600E-02
  3.3760E-14
  4.5621E-14
  5.7483E-14
  1.6880E-14
  3.1214E-14
  4.5549E-14
  0.0000E+00
  1.6807E-14
  3.3615E-14
  1.6353E-13
  1.9188E-13
  2.2023E-13
  8.1765E-14
  1.3680E-13
  1.9184E-13
  0.0000E+00
  8.1723E-14
  1.6345E-13
  6.9481E-13
  7.9657E-13
  8.9832E-13
  3.4741E-13
  5.7197E-13
  7.9654E-13
  0.0000E+00
  3.4738E-13
  6.9476E-13
  2.6501E-12
  3.0259E-12
  3.4017E-12
  1.3250E-12
  2.1755E-12
  3.0259E-12
  0.0000E+00
  1.3250E-12
  2.6501E-12
  9.9697E-12
  1.1364E-11
  1.2758E-11
  4.9848E-12
  8.1745E-12
  1.1364E-11
  0.0000E+00
  4.9849E-12
  9.9697E-12
  3.7331E-11
  4.2524E-11
  4.7717E-11
  1.8665E-11
  3.0595E-11
  4.2524E-11
  0.0000E+00
  1.8665E-11
  3.7331E-11
  1.3956E-10
  1.5892E-10
  1.7828E-10
  6.9781E-11
  1.1435E-10
  1.5892E-10
  0.0000E+00
  6.9781E-11
  1.3956E-10
  1.2276E-07
  1.2274E-07
  1.2272E-07
  1.2274E-07
  1.2274E-07
  1.2274E-07
  1.2271E-07
  1.2274E-07
  1.2276E-07
  4.9057E-07
  4.9042E-07
  4.9027E-07
  4.9071E-07
  4.9056E-07
  4.9042E-07
  4.9086E-07
  4.9071E-07
  4.9057E-07
  1.8348E-06
  1.8345E-06
  1.8343E-06
  1.8351E-06
  1.8348E-06
  1.8345E-06
  1.8354E-06
  1.8351E-06
  1.8348E-06
  7.0188E-06
  7.0184E-06
  7.0181E-06
  7.0192E-06
  7.0188E-06
  7.0184E-06
  7.0196E-06
  7.0192E-06
  7.0188E-06
  2.5933E-05
  2.5933E-05
  2.5934E-05
  2.5933E-05
  2.5933E-05
  2.5933E-05
  2.5933E-05
  2.5933E-05
  2.5933E-05
  9.6353E-05
  9.6353E-05
  9.6353E-05
  9.6352E-05
  9.6353E-05
  9.6353E-05
  9.6352E-05
  9.6352E-05
  9.6353E-05
  3.5982E-04
  3.5982E-04
  3.5982E-04
  3.5982E-04
  3.5982E-04
  3.5982E-04
  3.5982E-04
  3.5982E-04
  3.5982E-04
  1.3445E-03
  1.3445E-03
  1.3445E-03
  1.3445E-03
  1.3445E-03
  1.3445E-03
  1.3445E-03
  1.3445E-03
  1.3445E-03
  5.0239E-03
  5.0239E-03
  5.0239E-03
  5.0239E-03
  5.0239E-03
  5.0239E-03
  5.0239E-03
  5.0239E-03
  5.0239E-03
  1.8772E-02
  1.8772E-02
  1.8772E-02
  1.8772E-02
  1.8772E-02
  1.8772E-02
  1.8772E-02
  1.8772E-02
  1.8772E-02
  7.0139E-02
  7.0139E-02
  7.0139E-02
  7.0139E-02
  7.0139E-02
  7.0139E-02
  7.0139E-02
  7.0139E-02
  7.0139E-02
  2.6210E-01
  2.6210E-01
  2.6210E-01
  2.6210E-01
  2.6210E-01
  2.6210E-01
  2.6210E-01
  2.6210E-01
  2.6210E-01
  9.7889E-01
  9.7889E-01
  9.7889E-01
  9.7889E-01
  9.7889E-01
  9.7889E-01
  9.7889E-01
  9.7889E-01
  9.7889E-01
  1.5442E+00
  1.5442E+00
  1.5442E+00
  1.5442E+00
  1.5442E+00
  1.5442E+00
  1.5442E+00
  1.5442E+00
  1.5442E+00
   2.9700E-02
  3.4217E-14
  4.6240E-14
  5.8262E-14
  1.7108E-14
  3.1638E-14
  4.6167E-14
  0.0000E+00
  1.7035E-14
  3.4071E-14
  1.6473E-13
  1.9352E-13
  2.2232E-13
  8.2364E-14
  1.3792E-13
  1.9348E-13
  0.0000E+00
  8.2322E-14
  1.6464E-13
  6.9956E-13
  8.0310E-13
  9.0663E-13
  3.4978E-13
  5.7643E-13
  8.0307E-13
  0.0000E+00
  3.4975E-13
  6.9951E-13
  2.6678E-12
  3.0503E-12
  3.4327E-12
  1.3339E-12
  2.1921E-12
  3.0502E-12
  0.0000E+00
  1.3339E-12
  2.6678E-12
  1.0109E-11
  1.1523E-11
  1.2937E-11
  5.0543E-12
  8.2886E-12
  1.1523E-11
  0.0000E+00
  5.0543E-12
  1.0109E-11
  3.7887E-11
  4.3145E-11
  4.8404E-11
  1.8943E-11
  3.1044E-11
  4.3145E-11
  0.0000E+00
  1.8943E-11
  3.7887E-11
  1.4144E-10
  1.6106E-10
  1.8068E-10
  7.0718E-11
  1.1589E-10
  1.6106E-10
  0.0000E+00
  7.0718E-11
  1.4144E-10
  1.2359E-07
  1.2357E-07
  1.2356E-07
  1.2357E-07
  1.2357E-07
  1.2357E-07
  1.2354E-07
  1.2357E-07
  1.2359E-07
  4.9388E-07
  4.9374E-07
  4.9359E-07
  4.9403E-07
  4.9388E-07
  4.9374E-07
  4.9418E-07
  4.9403E-07
  4.9388E-07
  1.8470E-06
  1.8467E-06
  1.8465E-06
  1.8473E-06
  1.8470E-06
  1.8467E-06
  1.8476E-06
  1.8473E-06
  1.8470E-06
  7.0655E-06
  7.0651E-06
  7.0647E-06
  7.0659E-06
  7.0655E-06
  7.0651E-06
  7.0662E-06
  7.0659E-06
  7.0655E-06
  2.6107E-05
  2.6107E-05
  2.6107E-05
  2.6106E-05
  2.6107E-05
  2.6107E-05
  2.6106E-05
  2.6106E-05
  2.6107E-05
  9.6998E-05
  9.6999E-05
  9.6999E-05
  9.6998E-05
  9.6998E-05
  9.6999E-05
  9.6998E-05
  9.6998E-05
  9.6998E-05
  3.6224E-04
  3.6224E-04
  3.6224E-04
  3.6224E-04
  3.6224E-04
  3.6224E-04
  3.6224E-04
  3.6224E-04
  3.6224E-04
  1.3536E-03
  1.3536E-03
  1.3536E-03
  1.3536E-03
  1.3536E-03
  1.3536E-03
  1.3536E-03
  1.3536E-03
  1.3536E-03
  5.0577E-03
  5.0577E-03
  5.0577E-03
  5.0577E-03
  5.0577E-03
  5.0577E-03
  5.0577E-03
  5.0577E-03
  5.0577E-03
  1.8898E-02
  1.8898E-02
  1.8898E-02
  1.8898E-02
  1.8898E-02
  1.8898E-02
  1.8898E-02
  1.8898E-02
  1.8898E-02
  7.0612E-02
  7.0612E-02
  7.0612E-02
  7.0612E-02
  7.0612E-02
  7.0612E-02
  7.0612E-02
  7.0612E-02
  7.0612E-02
  2.6387E-01
  2.6387E-01
  2.6387E-01
  2.6387E-01
  2.6387E-01
  2.6387E-01
  2.6387E-01
  2.6387E-01
  2.6387E-01
  9.8551E-01
  9.8551E-01
  9.8551E-01
  9.8551E-01
  9.8551E-01
  9.8551E-01
  9.8551E-01
  9.8551E-01
  9.8551E-01
  1.5547E+00
  1.5547E+00
  1.5547E+00
  1.5547E+00
  1.5547E+00
  1.5547E+00
  1.5547E+00
  1.5547E+00
  1.5547E+00
   2.9800E-02
  3.4679E-14
  4.6864E-14
  5.9050E-14
  1.7339E-14
  3.2065E-14
  4.6791E-14
  0.0000E+00
  1.7266E-14
  3.4532E-14
  1.6594E-13
  1.9519E-13
  2.2443E-13
  8.2970E-14
  1.3906E-13
  1.9514E-13
  0.0000E+00
  8.2928E-14
  1.6586E-13
  7.0437E-13
  8.0971E-13
  9.1505E-13
  3.5219E-13
  5.8093E-13
  8.0968E-13
  0.0000E+00
  3.5216E-13
  7.0432E-13
  2.7223E-12
  3.1090E-12
  3.4957E-12
  1.3612E-12
  2.2351E-12
  3.1090E-12
  0.0000E+00
  1.3612E-12
  2.7223E-12
  1.0312E-11
  1.1739E-11
  1.3166E-11
  5.1560E-12
  8.4476E-12
  1.1739E-11
  0.0000E+00
  5.1560E-12
  1.0312E-11
  3.8435E-11
  4.3759E-11
  4.9082E-11
  1.9218E-11
  3.1488E-11
  4.3759E-11
  0.0000E+00
  1.9218E-11
  3.8435E-11
  1.4333E-10
  1.6322E-10
  1.8311E-10
  7.1664E-11
  1.1744E-10
  1.6322E-10
  0.0000E+00
  7.1665E-11
  1.4333E-10
  1.2442E-07
  1.2441E-07
  1.2439E-07
  1.2440E-07
  1.2440E-07
  1.2441E-07
  1.2438E-07
  1.2440E-07
  1.2442E-07
  4.9721E-07
  4.9706E-07
  4.9691E-07
  4.9736E-07
  4.9721E-07
  4.9706E-07
  4.9751E-07
  4.9736E-07
  4.9721E-07
  1.8593E-06
  1.8590E-06
  1.8587E-06
  1.8596E-06
  1.8593E-06
  1.8590E-06
  1.8598E-06
  1.8596E-06
  1.8593E-06
  7.1123E-06
  7.1119E-06
  7.1115E-06
  7.1127E-06
  7.1123E-06
  7.1119E-06
  7.1130E-06
  7.1127E-06
  7.1123E-06
  2.6281E-05
  2.6281E-05
  2.6281E-05
  2.6280E-05
  2.6281E-05
  2.6281E-05
  2.6280E-05
  2.6280E-05
  2.6281E-05
  9.7646E-05
  9.7647E-05
  9.7647E-05
  9.7646E-05
  9.7646E-05
  9.7647E-05
  9.7646E-05
  9.7646E-05
  9.7646E-05
  3.6466E-04
  3.6466E-04
  3.6466E-04
  3.6466E-04
  3.6466E-04
  3.6466E-04
  3.6466E-04
  3.6466E-04
  3.6466E-04
  1.3626E-03
  1.3626E-03
  1.3626E-03
  1.3626E-03
  1.3626E-03
  1.3626E-03
  1.3626E-03
  1.3626E-03
  1.3626E-03
  5.0916E-03
  5.0916E-03
  5.0916E-03
  5.0916E-03
  5.0916E-03
  5.0916E-03
  5.0916E-03
  5.0916E-03
  5.0916E-03
  1.9025E-02
  1.9025E-02
  1.9025E-02
  1.9025E-02
  1.9025E-02
  1.9025E-02
  1.9025E-02
  1.9025E-02
  1.9025E-02
  7.1087E-02
  7.1087E-02
  7.1087E-02
  7.1087E-02
  7.1087E-02
  7.1087E-02
  7.1087E-02
  7.1087E-02
  7.1087E-02
  2.6565E-01
  2.6565E-01
  2.6565E-01
  2.6565E-01
  2.6565E-01
  2.6565E-01
  2.6565E-01
  2.6565E-01
  2.6565E-01
  9.9215E-01
  9.9215E-01
  9.9215E-01
  9.9215E-01
  9.9215E-01
  9.9215E-01
  9.9215E-01
  9.9215E-01
  9.9215E-01
  1.5652E+00
  1.5652E+00
  1.5652E+00
  1.5652E+00
  1.5652E+00
  1.5652E+00
  1.5652E+00
  1.5652E+00
  1.5652E+00
   2.9900E-02
  3.5145E-14
  4.7495E-14
  5.9845E-14
  1.7573E-14
  3.2497E-14
  4.7421E-14
  0.0000E+00
  1.7499E-14
  3.4997E-14
  1.6717E-13
  1.9687E-13
  2.2657E-13
  8.3584E-14
  1.4021E-13
  1.9683E-13
  0.0000E+00
  8.3541E-14
  1.6708E-13
  7.0924E-13
  8.1641E-13
  9.2358E-13
  3.5462E-13
  5.8550E-13
  8.1638E-13
  0.0000E+00
  3.5459E-13
  7.0919E-13
  2.7404E-12
  3.1339E-12
  3.5274E-12
  1.3702E-12
  2.2520E-12
  3.1339E-12
  0.0000E+00
  1.3702E-12
  2.7404E-12
  1.0379E-11
  1.1832E-11
  1.3284E-11
  5.1896E-12
  8.5106E-12
  1.1832E-11
  0.0000E+00
  5.1896E-12
  1.0379E-11
  3.8869E-11
  4.4274E-11
  4.9680E-11
  1.9434E-11
  3.1854E-11
  4.4274E-11
  0.0000E+00
  1.9434E-11
  3.8869E-11
  1.4524E-10
  1.6540E-10
  1.8556E-10
  7.2620E-11
  1.1901E-10
  1.6540E-10
  0.0000E+00
  7.2620E-11
  1.4524E-10
  1.2526E-07
  1.2524E-07
  1.2523E-07
  1.2524E-07
  1.2524E-07
  1.2524E-07
  1.2521E-07
  1.2524E-07
  1.2526E-07
  5.0055E-07
  5.0040E-07
  5.0025E-07
  5.0070E-07
  5.0055E-07
  5.0040E-07
  5.0086E-07
  5.0070E-07
  5.0055E-07
  1.8716E-06
  1.8713E-06
  1.8710E-06
  1.8718E-06
  1.8716E-06
  1.8713E-06
  1.8721E-06
  1.8718E-06
  1.8716E-06
  7.1592E-06
  7.1589E-06
  7.1585E-06
  7.1596E-06
  7.1592E-06
  7.1589E-06
  7.1600E-06
  7.1596E-06
  7.1592E-06
  2.6455E-05
  2.6455E-05
  2.6455E-05
  2.6455E-05
  2.6455E-05
  2.6455E-05
  2.6455E-05
  2.6455E-05
  2.6455E-05
  9.8297E-05
  9.8297E-05
  9.8297E-05
  9.8296E-05
  9.8297E-05
  9.8297E-05
  9.8296E-05
  9.8296E-05
  9.8297E-05
  3.6709E-04
  3.6709E-04
  3.6709E-04
  3.6709E-04
  3.6709E-04
  3.6709E-04
  3.6709E-04
  3.6709E-04
  3.6709E-04
  1.3717E-03
  1.3717E-03
  1.3717E-03
  1.3717E-03
  1.3717E-03
  1.3717E-03
  1.3717E-03
  1.3717E-03
  1.3717E-03
  5.1257E-03
  5.1257E-03
  5.1257E-03
  5.1257E-03
  5.1257E-03
  5.1257E-03
  5.1257E-03
  5.1257E-03
  5.1257E-03
  1.9153E-02
  1.9153E-02
  1.9153E-02
  1.9153E-02
  1.9153E-02
  1.9153E-02
  1.9153E-02
  1.9153E-02
  1.9153E-02
  7.1563E-02
  7.1563E-02
  7.1563E-02
  7.1563E-02
  7.1563E-02
  7.1563E-02
  7.1563E-02
  7.1563E-02
  7.1563E-02
  2.6743E-01
  2.6743E-01
  2.6743E-01
  2.6743E-01
  2.6743E-01
  2.6743E-01
  2.6743E-01
  2.6743E-01
  2.6743E-01
  9.9881E-01
  9.9881E-01
  9.9881E-01
  9.9881E-01
  9.9881E-01
  9.9881E-01
  9.9881E-01
  9.9881E-01
  9.9881E-01
  1.5757E+00
  1.5757E+00
  1.5757E+00
  1.5757E+00
  1.5757E+00
  1.5757E+00
  1.5757E+00
  1.5757E+00
  1.5757E+00
   3.0000E-02
  3.5617E-14
  4.8133E-14
  6.0649E-14
  1.7808E-14
  3.2933E-14
  4.8058E-14
  0.0000E+00
  1.7734E-14
  3.5468E-14
  1.6841E-13
  1.9857E-13
  2.2874E-13
  8.4205E-14
  1.4137E-13
  1.9853E-13
  0.0000E+00
  8.4162E-14
  1.6832E-13
  7.8727E-13
  8.9124E-13
  9.9520E-13
  3.9363E-13
  6.4242E-13
  8.9121E-13
  0.0000E+00
  3.9361E-13
  7.8722E-13
  2.8859E-12
  3.2721E-12
  3.6584E-12
  1.4429E-12
  2.3575E-12
  3.2721E-12
  0.0000E+00
  1.4429E-12
  2.8859E-12
  1.0574E-11
  1.2038E-11
  1.3502E-11
  5.2871E-12
  8.6626E-12
  1.2038E-11
  0.0000E+00
  5.2871E-12
  1.0574E-11
  3.9432E-11
  4.4906E-11
  5.0380E-11
  1.9716E-11
  3.2311E-11
  4.4906E-11
  0.0000E+00
  1.9716E-11
  3.9432E-11
  1.4722E-10
  1.6764E-10
  1.8807E-10
  7.3608E-11
  1.2063E-10
  1.6764E-10
  0.0000E+00
  7.3608E-11
  1.4722E-10
  1.2610E-07
  1.2608E-07
  1.2606E-07
  1.2608E-07
  1.2608E-07
  1.2608E-07
  1.2605E-07
  1.2608E-07
  1.2610E-07
  5.0391E-07
  5.0375E-07
  5.0360E-07
  5.0406E-07
  5.0390E-07
  5.0375E-07
  5.0421E-07
  5.0406E-07
  5.0391E-07
  1.8839E-06
  1.8836E-06
  1.8833E-06
  1.8842E-06
  1.8839E-06
  1.8836E-06
  1.8844E-06
  1.8842E-06
  1.8839E-06
  7.2063E-06
  7.2060E-06
  7.2056E-06
  7.2067E-06
  7.2063E-06
  7.2060E-06
  7.2071E-06
  7.2067E-06
  7.2063E-06
  2.6630E-05
  2.6630E-05
  2.6630E-05
  2.6630E-05
  2.6630E-05
  2.6630E-05
  2.6630E-05
  2.6630E-05
  2.6630E-05
  9.8949E-05
  9.8949E-05
  9.8949E-05
  9.8948E-05
  9.8949E-05
  9.8949E-05
  9.8948E-05
  9.8948E-05
  9.8949E-05
  3.6953E-04
  3.6953E-04
  3.6953E-04
  3.6953E-04
  3.6953E-04
  3.6953E-04
  3.6953E-04
  3.6953E-04
  3.6953E-04
  1.3809E-03
  1.3809E-03
  1.3809E-03
  1.3809E-03
  1.3809E-03
  1.3809E-03
  1.3809E-03
  1.3809E-03
  1.3809E-03
  5.1598E-03
  5.1598E-03
  5.1598E-03
  5.1598E-03
  5.1598E-03
  5.1598E-03
  5.1598E-03
  5.1598E-03
  5.1598E-03
  1.9280E-02
  1.9280E-02
  1.9280E-02
  1.9280E-02
  1.9280E-02
  1.9280E-02
  1.9280E-02
  1.9280E-02
  1.9280E-02
  7.2041E-02
  7.2041E-02
  7.2041E-02
  7.2041E-02
  7.2041E-02
  7.2041E-02
  7.2041E-02
  7.2041E-02
  7.2041E-02
  2.6922E-01
  2.6922E-01
  2.6922E-01
  2.6922E-01
  2.6922E-01
  2.6922E-01
  2.6922E-01
  2.6922E-01
  2.6922E-01
  1.0055E+00
  1.0055E+00
  1.0055E+00
  1.0055E+00
  1.0055E+00
  1.0055E+00
  1.0055E+00
  1.0055E+00
  1.0055E+00
  1.5862E+00
  1.5862E+00
  1.5862E+00
  1.5862E+00
  1.5862E+00
  1.5862E+00
  1.5862E+00
  1.5862E+00
  1.5862E+00
