Scalar VONMISES under NLStatic for nodeset
189
   0.0000E+00
  6.7172E+02
  5.6362E+02
  5.6714E+02
  5.3080E+02
  4.5194E+02
  5.1292E+02
  6.2143E+02
  5.9170E+02
  7.1524E+02
  8.3994E+02
  7.6882E+02
  7.3922E+02
  7.0016E+02
  6.7370E+02
  7.2117E+02
  7.7152E+02
  8.1485E+02
  9.0849E+02
  9.1609E+02
  1.2180E+03
  1.1150E+03
  7.9666E+02
  9.3481E+02
  1.0239E+03
  8.4513E+02
  9.1888E+02
  9.8477E+02
  1.3640E+03
  1.4615E+03
  1.2551E+03
  1.0867E+03
  9.5478E+02
  1.0691E+03
  9.1171E+02
  7.5835E+02
  7.9835E+02
  1.5014E+03
  8.4490E+02
  8.6247E+02
  8.8617E+02
  8.3442E+02
  1.0016E+03
  8.3830E+02
  6.7987E+02
  8.0432E+02
  1.4423E+03
  9.3297E+02
  8.6203E+02
  1.0986E+03
  1.1425E+03
  1.0466E+03
  1.3634E+03
  9.1416E+02
  8.9948E+02
  1.3065E+03
  9.4195E+02
  8.7158E+02
  1.0823E+03
  1.0955E+03
  8.1030E+02
  1.2849E+03
  9.8829E+02
  8.9003E+02
  8.5825E+02
  7.2954E+02
  8.5326E+02
  7.5430E+02
  8.2478E+02
  7.7572E+02
  7.7328E+02
  8.0971E+02
  8.4867E+02
  8.6729E+02
  8.1724E+02
  7.9235E+02
  8.1944E+02
  8.5928E+02
  8.2426E+02
  8.5324E+02
  8.1639E+02
  7.7649E+02
  9.3470E+02
  1.1103E+03
  1.2560E+03
  1.2407E+03
  1.1264E+03
  1.0337E+03
  1.2648E+03
  8.9236E+02
  7.2088E+02
  1.1297E+03
  1.0278E+03
  1.4237E+03
  1.1196E+03
  1.0772E+03
  1.0310E+03
  1.7085E+03
  1.2083E+03
  9.5393E+02
  9.0356E+02
  7.6169E+02
  8.5855E+02
  8.4459E+02
  7.5503E+02
  7.8631E+02
  1.1156E+03
  1.0238E+03
  1.0233E+03
  9.0353E+02
  7.2670E+02
  8.3356E+02
  8.7034E+02
  6.8452E+02
  7.9256E+02
  8.2716E+02
  7.1533E+02
  8.7793E+02
  9.2979E+02
  9.7132E+02
  1.2430E+03
  9.0375E+02
  8.8594E+02
  1.1983E+03
  8.5597E+02
  7.3875E+02
  8.8582E+02
  7.3734E+02
  9.6486E+02
  1.3050E+03
  7.7042E+02
  9.8009E+02
  1.4796E+03
  9.0671E+02
  1.0520E+03
  1.5598E+03
  7.0479E+02
  7.8117E+02
  8.3584E+02
  7.1205E+02
  7.8068E+02
  8.9600E+02
  6.9252E+02
  9.2845E+02
  1.4209E+03
  7.3611E+02
  7.5784E+02
  7.5705E+02
  7.2094E+02
  7.6162E+02
  7.8654E+02
  7.0157E+02
  7.4185E+02
  8.1804E+02
  7.6778E+02
  7.4021E+02
  7.5498E+02
  7.1204E+02
  7.6177E+02
  7.6907E+02
  7.4659E+02
  7.5846E+02
  7.7404E+02
  1.1331E+03
  7.8015E+02
  7.3350E+02
  7.7144E+02
  7.6821E+02
  7.5703E+02
  7.8685E+02
  7.6562E+02
  7.6325E+02
  1.4550E+03
  1.0528E+03
  7.9423E+02
  1.0429E+03
  6.9612E+02
  7.7024E+02
  7.8467E+02
  7.8615E+02
  7.6754E+02
  1.1532E+03
  1.2026E+03
  8.2265E+02
  1.1561E+03
  7.1093E+02
  7.7835E+02
  7.3665E+02
  7.7413E+02
  7.7599E+02
