Scalar VONMISES under NLStatic for nodeset
189
   0.0000E+00
  2.5719E+04
  2.5719E+04
  2.5719E+04
  2.5719E+04
  2.5719E+04
  2.5719E+04
  2.5719E+04
  2.5719E+04
  2.5719E+04
  2.4768E+04
  2.4768E+04
  2.4768E+04
  2.4768E+04
  2.4768E+04
  2.4768E+04
  2.4768E+04
  2.4768E+04
  2.4768E+04
  2.2893E+04
  2.2893E+04
  2.2893E+04
  2.2893E+04
  2.2893E+04
  2.2893E+04
  2.2893E+04
  2.2893E+04
  2.2893E+04
  2.2301E+04
  2.2301E+04
  2.2301E+04
  2.2301E+04
  2.2301E+04
  2.2301E+04
  2.2301E+04
  2.2301E+04
  2.2301E+04
  2.5633E+04
  2.5633E+04
  2.5633E+04
  2.5633E+04
  2.5633E+04
  2.5633E+04
  2.5633E+04
  2.5633E+04
  2.5633E+04
  2.7279E+04
  2.7279E+04
  2.7279E+04
  2.7279E+04
  2.7279E+04
  2.7279E+04
  2.7279E+04
  2.7279E+04
  2.7279E+04
  2.2004E+04
  2.2004E+04
  2.2004E+04
  2.2004E+04
  2.2004E+04
  2.2004E+04
  2.2004E+04
  2.2004E+04
  2.2004E+04
  1.3966E+04
  1.3966E+04
  1.3966E+04
  1.3966E+04
  1.3966E+04
  1.3966E+04
  1.3966E+04
  1.3966E+04
  1.3966E+04
  9.9170E+03
  9.9170E+03
  9.9170E+03
  9.9170E+03
  9.9170E+03
  9.9170E+03
  9.9170E+03
  9.9170E+03
  9.9170E+03
  1.7007E+04
  1.7007E+04
  1.7007E+04
  1.7007E+04
  1.7007E+04
  1.7007E+04
  1.7007E+04
  1.7007E+04
  1.7007E+04
  7.4978E+04
  7.4978E+04
  7.4978E+04
  7.4978E+04
  7.4978E+04
  7.4978E+04
  7.4978E+04
  7.4978E+04
  7.4978E+04
  1.1346E+05
  1.1346E+05
  1.1346E+05
  1.1346E+05
  1.1346E+05
  1.1346E+05
  1.1346E+05
  1.1346E+05
  1.1346E+05
  5.3751E+04
  5.3751E+04
  5.3751E+04
  5.3751E+04
  5.3751E+04
  5.3751E+04
  5.3751E+04
  5.3751E+04
  5.3751E+04
  4.8666E+03
  4.8666E+03
  4.8666E+03
  4.8666E+03
  4.8666E+03
  4.8666E+03
  4.8666E+03
  4.8666E+03
  4.8666E+03
  2.5191E+03
  2.5191E+03
  2.5191E+03
  2.5191E+03
  2.5191E+03
  2.5191E+03
  2.5191E+03
  2.5191E+03
  2.5191E+03
  2.2632E+03
  2.2632E+03
  2.2632E+03
  2.2632E+03
  2.2632E+03
  2.2632E+03
  2.2632E+03
  2.2632E+03
  2.2632E+03
  2.2419E+03
  2.2419E+03
  2.2419E+03
  2.2419E+03
  2.2419E+03
  2.2419E+03
  2.2419E+03
  2.2419E+03
  2.2419E+03
  1.8502E+03
  1.8502E+03
  1.8502E+03
  1.8502E+03
  1.8502E+03
  1.8502E+03
  1.8502E+03
  1.8502E+03
  1.8502E+03
  2.4095E+03
  2.4095E+03
  2.4095E+03
  2.4095E+03
  2.4095E+03
  2.4095E+03
  2.4095E+03
  2.4095E+03
  2.4095E+03
  2.3388E+03
  2.3388E+03
  2.3388E+03
  2.3388E+03
  2.3388E+03
  2.3388E+03
  2.3388E+03
  2.3388E+03
  2.3388E+03
  1.7904E+03
  1.7904E+03
  1.7904E+03
  1.7904E+03
  1.7904E+03
  1.7904E+03
  1.7904E+03
  1.7904E+03
  1.7904E+03
